
units  real
dimension 3
boundary p p p
atom_style full

# Use your latest restart file here
read_restart restart_CAG40_cont2.47000000
Reading restart file ...
  restart file = 22 Jul 2025, LAMMPS = 22 Jul 2025
  restoring atom style full from restart
  orthogonal box = (0 0 0) to (809 809 809)
  4 by 4 by 4 MPI processor grid
  restoring pair style hybrid/overlay from restart
  restoring bond style harmonic from restart
  restoring angle style harmonic from restart
  7680 atoms
  7616 bonds
  7552 angles
Finding 1-2 1-3 1-4 neighbors ...
  special bond factors lj:    0        0        1       
  special bond factors coul:  0        0        0       
     2 = max # of 1-2 neighbors
     2 = max # of 1-3 neighbors
     4 = max # of 1-4 neighbors
     6 = max # of special neighbors
  special bonds CPU = 0.298 seconds
  read_restart CPU = 0.384 seconds

reset_timestep 47000000
restart 1000000 restart_CAG40_cont3

###########################
# Recreate force field
###########################

bond_style harmonic
bond_coeff 1 7.5 5.9

angle_style harmonic
angle_coeff 1 5.0 150.0

pair_style hybrid/overlay lj/cut 10.0 base/rna 18.0
pair_coeff * * lj/cut 2.0 8.9089871814
pair_modify pair lj/cut shift yes

pair_coeff 1 1 base/rna 0.00000 3.0 13.8 1.5 0.5 1.8326 0.9425 1.8326 1.1345 #AA
pair_coeff 1 2 base/rna 0.00000 3.0 13.8 1.5 0.5 1.8326 0.9425 1.8326 1.1345 #AC
pair_coeff 1 3 base/rna 0.00000 3.0 13.8 1.5 0.5 1.8326 0.9425 1.8326 1.1345 #AG
pair_coeff 1 4 base/rna 3.33333 3.0 13.8 1.5 0.5 1.8326 0.9425 1.8326 1.1345 #AU
pair_coeff 2 2 base/rna 0.00000 3.0 13.8 1.5 0.5 1.8326 0.9425 1.8326 1.1345 #CC
pair_coeff 2 3 base/rna 5.00000 3.0 13.8 1.5 0.5 1.8326 0.9425 1.8326 1.1345 #CG
pair_coeff 2 4 base/rna 0.00000 3.0 13.8 1.5 0.5 1.8326 0.9425 1.8326 1.1345 #CU
pair_coeff 3 3 base/rna 0.00000 3.0 13.8 1.5 0.5 1.8326 0.9425 1.8326 1.1345 #GG
pair_coeff 3 4 base/rna 3.33333 3.0 13.8 1.5 0.5 1.8326 0.9425 1.8326 1.1345 #GU
pair_coeff 4 4 base/rna 0.00000 3.0 13.8 1.5 0.5 1.8326 0.9425 1.8326 1.1345 #UU

special_bonds lj 0.0 0.0 1.0

neighbor  25.0 bin
comm_style      tiled
timestep        10
neigh_modify    every 10 delay 0

###########################
# Integrator, thermostat, output
###########################

variable temperature9 equal 293
variable randomSeed equal 13652

fix             fxnve   all nve
fix             fxlange all langevin ${temperature9} ${temperature9} 100000.0 ${randomSeed}
fix             fxlange all langevin 293 ${temperature9} 100000.0 ${randomSeed}
fix             fxlange all langevin 293 293 100000.0 ${randomSeed}
fix             fxlange all langevin 293 293 100000.0 13652

# Thermo output (same as main run)
thermo          1000
thermo_style    custom step pe
thermo_modify   flush yes

dump            1 all custom 10000 40CAG_continue3.lammpstrj id mol type xu yu zu
dump_modify     1 sort id

run             100000000
Generated 0 of 6 mixed pair_coeff terms from geometric mixing rule
Neighbor list info ...
  update: every = 10 steps, delay = 0 steps, check = yes
  max neighbors/atom: 2000, page size: 100000
  master list distance cutoff = 43
  ghost atom cutoff = 43
  binsize = 21.5, bins = 38 38 38
  2 neighbor lists, perpetual/occasional/extra = 2 0 0
  (1) pair lj/cut, perpetual
      attributes: half, newton on
      pair build: half/bin/newton
      stencil: half/bin/3d
      bin: standard
  (2) pair base/rna, perpetual
      attributes: half, newton on, cut 43
      pair build: half/bin/newton
      stencil: half/bin/3d
      bin: standard
Per MPI rank memory allocation (min/avg/max) = 7.225 | 7.381 | 7.65 Mbytes
   Step         PotEng    
  47000000  -3861.1423    
  47001000  -3954.5056    
  47002000  -3929.2388    
  47003000  -3876.0449    
  47004000  -3980.1738    
  47005000  -3943.5251    
  47006000  -4008.3599    
  47007000  -3996.6451    
  47008000  -4079.2431    
  47009000  -4008.0887    
  47010000  -4021.4242    
  47011000  -4083.8836    
  47012000  -4134.5322    
  47013000  -4014.4113    
  47014000  -4093.8187    
  47015000  -4052.3627    
  47016000  -4017.8794    
  47017000  -4179.0232    
  47018000  -4085.6547    
  47019000  -4044.1022    
  47020000  -4082.7234    
  47021000  -4109.7603    
  47022000  -4128.9152    
  47023000  -4149.4196    
  47024000  -4013.6272    
  47025000  -4095.6589    
  47026000  -4072.6987    
  47027000  -4079.6227    
  47028000  -4163.5081    
  47029000  -4186.4795    
  47030000  -4216.7391    
  47031000  -4266.2159    
  47032000  -4245.1619    
  47033000  -4171.3845    
  47034000  -4127.3046    
  47035000  -4284.594     
  47036000  -4169.1108    
  47037000  -4225.4711    
  47038000  -4048.1049    
  47039000  -4115.4299    
  47040000  -4139.2763    
  47041000  -4120.8012    
  47042000  -4137.6134    
  47043000  -4136.6035    
  47044000  -4107.6741    
  47045000  -4175.4768    
  47046000  -4022.5915    
  47047000  -4099.255     
  47048000  -4120.7563    
  47049000  -4151.6026    
  47050000  -4156.849     
  47051000  -3981.7494    
  47052000  -3970.9462    
  47053000  -3971.0237    
  47054000  -4013.3745    
  47055000  -4012.9688    
  47056000  -3979.427     
  47057000  -4007.5636    
  47058000  -4054.7856    
  47059000  -3998.7207    
  47060000  -4079.6249    
  47061000  -3984.1562    
  47062000  -4050.1433    
  47063000  -4065.9725    
  47064000  -4139.0292    
  47065000  -4090.7723    
  47066000  -4027.6966    
  47067000  -4074.3593    
  47068000  -4092.0765    
  47069000  -4058.5909    
  47070000  -4235.019     
  47071000  -4220.63      
  47072000  -4246.0144    
  47073000  -4154.1912    
  47074000  -4178.1644    
  47075000  -4251.4907    
  47076000  -4083.7108    
  47077000  -4163.8216    
  47078000  -4168.7054    
  47079000  -4251.2824    
  47080000  -4243.0962    
  47081000  -4329.1428    
  47082000  -4288.5847    
  47083000  -4193.901     
  47084000  -4323.3101    
  47085000  -4259.2329    
  47086000  -4189.7879    
  47087000  -4189.0218    
  47088000  -4150.6401    
  47089000  -4265.7219    
  47090000  -4247.4117    
  47091000  -4283.9715    
  47092000  -4299.2085    
  47093000  -4324.4431    
  47094000  -4343.6223    
  47095000  -4265.9638    
  47096000  -4308.9952    
  47097000  -4336.2148    
  47098000  -4411.5925    
  47099000  -4265.5454    
  47100000  -4325.8121    
  47101000  -4340.022     
  47102000  -4287.8725    
  47103000  -4325.1966    
  47104000  -4209.0004    
  47105000  -4211.9241    
  47106000  -4232.4095    
  47107000  -4251.615     
  47108000  -4240.536     
  47109000  -4233.2933    
  47110000  -4234.2546    
  47111000  -4229.6482    
  47112000  -4244.5658    
  47113000  -4277.7721    
  47114000  -4282.5858    
  47115000  -4203.7639    
  47116000  -4223.8903    
  47117000  -4220.9312    
  47118000  -4216.5274    
  47119000  -4185.97      
  47120000  -4194.6503    
  47121000  -4258.6331    
  47122000  -4230.4954    
  47123000  -4168.1871    
  47124000  -4317.3279    
  47125000  -4281.6562    
  47126000  -4212.6768    
  47127000  -4180.763     
  47128000  -4238.9071    
  47129000  -4191.3512    
  47130000  -4225.0824    
  47131000  -4310.7778    
  47132000  -4341.2213    
  47133000  -4245.3617    
  47134000  -4340.9629    
  47135000  -4323.1331    
  47136000  -4208.5589    
  47137000  -4147.3566    
  47138000  -4140.8436    
  47139000  -4176.3876    
  47140000  -4159.5193    
  47141000  -4236.9967    
  47142000  -4166.1434    
  47143000  -4208.2903    
  47144000  -4285.8348    
  47145000  -4113.6189    
  47146000  -4192.8478    
  47147000  -4340.3855    
  47148000  -4221.1926    
  47149000  -4265.2046    
  47150000  -4230.4408    
  47151000  -4191.1351    
  47152000  -4160.9472    
  47153000  -4044.2297    
  47154000  -4120.2823    
  47155000  -4104.48      
  47156000  -4136.5183    
  47157000  -4104.8091    
  47158000  -4100.8079    
  47159000  -4073.2665    
  47160000  -4046.4559    
  47161000  -4131.7793    
  47162000  -4050.7423    
  47163000  -4241.5119    
  47164000  -4170.2037    
  47165000  -4258.404     
  47166000  -4128.4495    
  47167000  -4119.6059    
  47168000  -4200.7375    
  47169000  -4200.5849    
  47170000  -4257.638     
  47171000  -4176.3939    
  47172000  -4171.0356    
  47173000  -4102.4183    
  47174000  -4161.2674    
  47175000  -4099.9197    
  47176000  -4147.4892    
  47177000  -4277.5591    
  47178000  -4222.4375    
  47179000  -4248.8903    
  47180000  -4230.3207    
  47181000  -4226.4022    
  47182000  -4405.5138    
  47183000  -4330.2134    
  47184000  -4339.6262    
  47185000  -4289.8414    
  47186000  -4353.5531    
  47187000  -4325.0563    
  47188000  -4287.5841    
  47189000  -4300.2811    
  47190000  -4277.0847    
  47191000  -4171.7076    
  47192000  -4334.3609    
  47193000  -4208.2378    
  47194000  -4277.2283    
  47195000  -4232.0587    
  47196000  -4248.5019    
  47197000  -4242.3078    
  47198000  -4314.0857    
  47199000  -4365.1232    
  47200000  -4259.9303    
  47201000  -4388.0499    
  47202000  -4412.6067    
  47203000  -4333.7994    
  47204000  -4230.3688    
  47205000  -4385.7768    
  47206000  -4452.4041    
  47207000  -4413.2173    
  47208000  -4406.9348    
  47209000  -4299.757     
  47210000  -4361.4247    
  47211000  -4296.3931    
  47212000  -4395.2246    
  47213000  -4230.8251    
  47214000  -4324.1354    
  47215000  -4226.4265    
  47216000  -4272.8438    
  47217000  -4220.261     
  47218000  -4317.4926    
  47219000  -4314.9941    
  47220000  -4289.8023    
  47221000  -4203.0277    
  47222000  -4275.703     
  47223000  -4343.8217    
  47224000  -4280.985     
  47225000  -4367.7327    
  47226000  -4262.7702    
  47227000  -4278.7089    
  47228000  -4219.6055    
  47229000  -4387.4147    
  47230000  -4357.9422    
  47231000  -4356.1798    
  47232000  -4315.1136    
  47233000  -4257.9616    
  47234000  -4305.0738    
  47235000  -4345.8923    
  47236000  -4346.4591    
  47237000  -4291.3074    
  47238000  -4265.1716    
  47239000  -4316.8851    
  47240000  -4228.9844    
  47241000  -4148.3972    
  47242000  -4067.4437    
  47243000  -4146.0792    
  47244000  -4139.5203    
  47245000  -4134.7232    
  47246000  -4211.4758    
  47247000  -4092.3949    
  47248000  -4013.5984    
  47249000  -4031.1747    
  47250000  -4047.0898    
  47251000  -3991.7085    
  47252000  -4008.2552    
  47253000  -4151.9731    
  47254000  -4097.6957    
  47255000  -4185.6641    
  47256000  -4109.2729    
  47257000  -4072.3847    
  47258000  -4049.6609    
  47259000  -4042.273     
  47260000  -4044.1396    
  47261000  -4109.1962    
  47262000  -4159.5252    
  47263000  -4128.0738    
  47264000  -4180.4209    
  47265000  -4099.1338    
  47266000  -4030.8835    
  47267000  -4071.3457    
  47268000  -3947.9649    
  47269000  -4147.8736    
  47270000  -4045.869     
  47271000  -4183.2818    
  47272000  -4123.5525    
  47273000  -4067.9329    
  47274000  -4055.3326    
  47275000  -4088.5917    
  47276000  -4170.5102    
  47277000  -4161.2707    
  47278000  -4134.3455    
  47279000  -3989.7906    
  47280000  -4115.6874    
  47281000  -4000.6183    
  47282000  -4088.6644    
  47283000  -4090.849     
  47284000  -4098.752     
  47285000  -4148.3906    
  47286000  -4090.2608    
  47287000  -4105.3058    
  47288000  -4029.3137    
  47289000  -4182.5648    
  47290000  -4104.7479    
  47291000  -4074.2394    
  47292000  -4034.2457    
  47293000  -4097.334     
  47294000  -4159.9757    
  47295000  -4048.7503    
  47296000  -4149.7455    
  47297000  -4141.6166    
  47298000  -4127.0513    
  47299000  -4138.9973    
  47300000  -4160.1074    
  47301000  -4093.9409    
  47302000  -4143.8694    
  47303000  -4191.5059    
  47304000  -4199.5592    
  47305000  -4221.5635    
  47306000  -4274.0371    
  47307000  -4205.3215    
  47308000  -4226.0364    
  47309000  -4301.9476    
  47310000  -4295.6857    
  47311000  -4309.3031    
  47312000  -4289.5884    
  47313000  -4305.5571    
  47314000  -4307.4598    
  47315000  -4219.9712    
  47316000  -4283.6246    
  47317000  -4347.8042    
  47318000  -4175.3516    
  47319000  -4232.1231    
  47320000  -4238.7167    
  47321000  -4336.4375    
  47322000  -4346.7099    
  47323000  -4205.3544    
  47324000  -4194.7724    
  47325000  -4247.9806    
  47326000  -4291.2587    
  47327000  -4294.9303    
  47328000  -4302.6407    
  47329000  -4106.8613    
  47330000  -4211.2364    
  47331000  -4290.2322    
  47332000  -4245.8352    
  47333000  -4229.32      
  47334000  -4274.9735    
  47335000  -4327.4982    
  47336000  -4349.9374    
  47337000  -4339.7639    
  47338000  -4229.2654    
  47339000  -4181.004     
  47340000  -4280.2844    
  47341000  -4187.9292    
  47342000  -4207.4684    
  47343000  -4136.8566    
  47344000  -4217.041     
  47345000  -4251.3345    
  47346000  -4370.9295    
  47347000  -4240.2514    
  47348000  -4250.2083    
  47349000  -4190.5969    
  47350000  -4332.8787    
  47351000  -4233.4654    
  47352000  -4191.7599    
  47353000  -4177.085     
  47354000  -4204.1216    
  47355000  -4238.0708    
  47356000  -4202.1007    
  47357000  -4256.3962    
  47358000  -4276.1532    
  47359000  -4251.6132    
  47360000  -4282.983     
  47361000  -4225.1376    
  47362000  -4223.1888    
  47363000  -4210.8497    
  47364000  -4216.176     
  47365000  -4325.2342    
  47366000  -4296.1873    
  47367000  -4271.6734    
  47368000  -4393.2267    
  47369000  -4447.7606    
  47370000  -4283.0435    
  47371000  -4244.832     
  47372000  -4282.0509    
  47373000  -4314.1713    
  47374000  -4345.3764    
  47375000  -4330.6852    
  47376000  -4338.7559    
  47377000  -4355.0708    
  47378000  -4302.4905    
  47379000  -4291.347     
  47380000  -4290.0041    
  47381000  -4326.8688    
  47382000  -4259.086     
  47383000  -4224.8652    
  47384000  -4258.7109    
  47385000  -4285.6292    
  47386000  -4442.9634    
  47387000  -4256.6334    
  47388000  -4383.6012    
  47389000  -4357.1467    
  47390000  -4308.4967    
  47391000  -4265.9369    
  47392000  -4281.7975    
  47393000  -4197.3298    
  47394000  -4215.7753    
  47395000  -4289.6201    
  47396000  -4262.6456    
  47397000  -4268.3229    
  47398000  -4130.9071    
  47399000  -4109.0982    
  47400000  -4213.1991    
  47401000  -4162.0791    
  47402000  -4198.7336    
  47403000  -4252.0315    
  47404000  -4202.6674    
  47405000  -4123.6585    
  47406000  -4172.9992    
  47407000  -4152.2823    
  47408000  -4201.439     
  47409000  -4255.4581    
  47410000  -4271.9223    
  47411000  -4282.9918    
  47412000  -4254.9414    
  47413000  -4234.2242    
  47414000  -4275.7931    
  47415000  -4242.703     
  47416000  -4197.3776    
  47417000  -4199.3714    
  47418000  -4192.9653    
  47419000  -4304.4122    
  47420000  -4289.7067    
  47421000  -4282.8963    
  47422000  -4274.7144    
  47423000  -4170.1928    
  47424000  -4172.9843    
  47425000  -4305.9153    
  47426000  -4110.8186    
  47427000  -4187.8807    
  47428000  -4190.7268    
  47429000  -4148.3709    
  47430000  -4194.9368    
  47431000  -4141.6528    
  47432000  -4212.7868    
  47433000  -4257.4984    
  47434000  -4177.9449    
  47435000  -4284.7994    
  47436000  -4267.1527    
  47437000  -4182.0606    
  47438000  -4227.8172    
  47439000  -4174.9956    
  47440000  -4163.2881    
  47441000  -4153.3795    
  47442000  -4182.4656    
  47443000  -4138.6823    
  47444000  -4098.521     
  47445000  -4150.1437    
  47446000  -4142.153     
  47447000  -4160.7536    
  47448000  -4089.9412    
  47449000  -4100.8273    
  47450000  -4084.1606    
  47451000  -4133.3071    
  47452000  -4091.1838    
  47453000  -4121.946     
  47454000  -4216.0122    
  47455000  -4186.3547    
  47456000  -4240.0509    
  47457000  -4201.5756    
  47458000  -4172.2787    
  47459000  -4194.4842    
  47460000  -4224.2141    
  47461000  -4248.1496    
  47462000  -4248.9038    
  47463000  -4154.2374    
  47464000  -4226.647     
  47465000  -4114.1257    
  47466000  -4225.0764    
  47467000  -4222.0708    
  47468000  -4201.86      
  47469000  -4245.9496    
  47470000  -4129.0432    
  47471000  -4222.681     
  47472000  -4281.1236    
  47473000  -4241.5761    
  47474000  -4099.0114    
  47475000  -4204.5887    
  47476000  -4178.6069    
  47477000  -4188.4912    
  47478000  -4191.336     
  47479000  -4145.6552    
  47480000  -4133.6417    
  47481000  -4213.6139    
  47482000  -4084.681     
  47483000  -4071.6328    
  47484000  -4225.4962    
  47485000  -4261.4152    
  47486000  -4198.2427    
  47487000  -4227.3629    
  47488000  -4095.7199    
  47489000  -4279.0531    
  47490000  -4185.3361    
  47491000  -4231.6111    
  47492000  -4098.2204    
  47493000  -4137.7523    
  47494000  -4118.8658    
  47495000  -4150.6822    
  47496000  -4110.2582    
  47497000  -4147.2073    
  47498000  -4134.9794    
  47499000  -4180.8601    
  47500000  -4128.7314    
  47501000  -4029.2748    
  47502000  -4143.9365    
  47503000  -4037.8724    
  47504000  -4075.1807    
  47505000  -4050.6868    
  47506000  -4042.5771    
  47507000  -4086.1428    
  47508000  -4036.3874    
  47509000  -4130.3575    
  47510000  -4150.1251    
  47511000  -4205.5251    
  47512000  -4250.9592    
  47513000  -4172.7221    
  47514000  -4224.4437    
  47515000  -4126.0665    
  47516000  -4112.7443    
  47517000  -4093.6295    
  47518000  -4120.668     
  47519000  -4143.7731    
  47520000  -4197.9502    
  47521000  -4165.0808    
  47522000  -4237.1223    
  47523000  -4290.2212    
  47524000  -4326.2298    
  47525000  -4258.3551    
  47526000  -4298.047     
  47527000  -4282.232     
  47528000  -4277.7059    
  47529000  -4293.1873    
  47530000  -4376.5653    
  47531000  -4294.6829    
  47532000  -4314.9516    
  47533000  -4205.2359    
  47534000  -4277.4271    
  47535000  -4330.361     
  47536000  -4256.5356    
  47537000  -4309.6098    
  47538000  -4287.9604    
  47539000  -4296.1027    
  47540000  -4354.4804    
  47541000  -4328.94      
  47542000  -4367.9902    
  47543000  -4426.2554    
  47544000  -4275.8427    
  47545000  -4291.0429    
  47546000  -4357.4847    
  47547000  -4238.8706    
  47548000  -4222.9211    
  47549000  -4369.9398    
  47550000  -4252.353     
  47551000  -4161.5066    
  47552000  -4179.1873    
  47553000  -4115.6434    
  47554000  -4033.9826    
  47555000  -4107.0099    
  47556000  -4212.4783    
  47557000  -4202.8453    
  47558000  -4290.6078    
  47559000  -4321.0312    
  47560000  -4303.9093    
  47561000  -4292.603     
  47562000  -4315.7564    
  47563000  -4243.5957    
  47564000  -4200.0323    
  47565000  -4375.5611    
  47566000  -4192.9241    
  47567000  -4177.4391    
  47568000  -4334.878     
  47569000  -4446.5247    
  47570000  -4364.1056    
  47571000  -4317.7843    
  47572000  -4342.2936    
  47573000  -4252.9426    
  47574000  -4323.7436    
  47575000  -4293.04      
  47576000  -4190.8555    
  47577000  -4327.6538    
  47578000  -4348.586     
  47579000  -4370.1116    
  47580000  -4205.3565    
  47581000  -4210.1234    
  47582000  -4155.5628    
  47583000  -4206.0379    
  47584000  -4148.5402    
  47585000  -4185.1722    
  47586000  -4175.5326    
  47587000  -4208.7671    
  47588000  -4251.8698    
  47589000  -4226.4734    
  47590000  -4324.7673    
  47591000  -4262.413     
  47592000  -4269.3049    
  47593000  -4235.6076    
  47594000  -4234.6556    
  47595000  -4279.937     
  47596000  -4336.43      
  47597000  -4278.6449    
  47598000  -4273.4266    
  47599000  -4363.518     
  47600000  -4194.4428    
  47601000  -4272.1953    
  47602000  -4294.6752    
  47603000  -4187.3924    
  47604000  -4214.2474    
  47605000  -4197.7269    
  47606000  -4192.3211    
  47607000  -4164.7247    
  47608000  -4157.8061    
  47609000  -4365.8756    
  47610000  -4207.6063    
  47611000  -4123.5472    
  47612000  -4080.4768    
  47613000  -4143.2068    
  47614000  -4217.8099    
  47615000  -4297.4541    
  47616000  -4189.0897    
  47617000  -4170.7781    
  47618000  -4184.7309    
  47619000  -4147.3777    
  47620000  -4205.5024    
  47621000  -4206.5314    
  47622000  -4254.2338    
  47623000  -4148.9516    
  47624000  -4041.1302    
  47625000  -4111.4354    
  47626000  -4194.3675    
  47627000  -4119.3658    
  47628000  -4248.4918    
  47629000  -4171.4578    
  47630000  -4069.7997    
  47631000  -4043.8079    
  47632000  -4123.319     
  47633000  -4107.1132    
  47634000  -4147.4285    
  47635000  -4109.8807    
  47636000  -4084.9427    
  47637000  -4195.0897    
  47638000  -4165.9305    
  47639000  -4167.0424    
  47640000  -4170.2205    
  47641000  -4166.8452    
  47642000  -4186.1448    
  47643000  -4157.9837    
  47644000  -4151.0396    
  47645000  -4167.869     
  47646000  -4211.0121    
  47647000  -4211.1381    
  47648000  -4185.6823    
  47649000  -4230.3733    
  47650000  -4154.7885    
  47651000  -4281.874     
  47652000  -4258.4617    
  47653000  -4254.4557    
  47654000  -4279.3358    
  47655000  -4276.9626    
  47656000  -4299.2243    
  47657000  -4259.376     
  47658000  -4195.9293    
  47659000  -4281.5452    
  47660000  -4305.4793    
  47661000  -4217.0502    
  47662000  -4309.3927    
  47663000  -4275.5563    
  47664000  -4349.411     
  47665000  -4368.092     
  47666000  -4308.304     
  47667000  -4306.916     
  47668000  -4376.1122    
  47669000  -4245.4383    
  47670000  -4442.9307    
  47671000  -4339.2349    
  47672000  -4286.497     
  47673000  -4347.0312    
  47674000  -4289.1756    
  47675000  -4359.9952    
  47676000  -4368.7946    
  47677000  -4341.2943    
  47678000  -4366.7463    
  47679000  -4345.1762    
  47680000  -4315.2109    
  47681000  -4369.7942    
  47682000  -4343.5959    
  47683000  -4309.696     
  47684000  -4361.8267    
  47685000  -4365.4281    
  47686000  -4247.8006    
  47687000  -4419.0016    
  47688000  -4358.148     
  47689000  -4346.2975    
  47690000  -4317.6914    
  47691000  -4380.2202    
  47692000  -4333.0955    
  47693000  -4321.9992    
  47694000  -4363.3344    
  47695000  -4276.5116    
  47696000  -4242.8831    
  47697000  -4270.6845    
  47698000  -4331.7274    
  47699000  -4334.4701    
  47700000  -4257.7704    
  47701000  -4312.6954    
  47702000  -4299.8962    
  47703000  -4244.0921    
  47704000  -4334.4811    
  47705000  -4371.6088    
  47706000  -4293.4873    
  47707000  -4346.2911    
  47708000  -4333.1535    
  47709000  -4304.3068    
  47710000  -4301.2276    
  47711000  -4319.4956    
  47712000  -4294.9139    
  47713000  -4396.6449    
  47714000  -4284.7544    
  47715000  -4224.8215    
  47716000  -4219.6061    
  47717000  -4235.1168    
  47718000  -4295.321     
  47719000  -4209.1003    
  47720000  -4286.191     
  47721000  -4261.8272    
  47722000  -4092.3191    
  47723000  -4185.2351    
  47724000  -4198.625     
  47725000  -4188.3508    
  47726000  -4147.7135    
  47727000  -4183.3484    
  47728000  -4286.352     
  47729000  -4102.4074    
  47730000  -4225.4736    
  47731000  -4246.9321    
  47732000  -4255.663     
  47733000  -4312.1589    
  47734000  -4178.1518    
  47735000  -4187.001     
  47736000  -4258.6166    
  47737000  -4282.3835    
  47738000  -4290.1928    
  47739000  -4304.1277    
  47740000  -4342.5938    
  47741000  -4369.0161    
  47742000  -4250.9964    
  47743000  -4263.6627    
  47744000  -4241.1684    
  47745000  -4216.9525    
  47746000  -4265.2928    
  47747000  -4168.8341    
  47748000  -4189.8775    
  47749000  -4269.0142    
  47750000  -4246.3075    
  47751000  -4285.4509    
  47752000  -4171.4895    
  47753000  -4191.4392    
  47754000  -4210.9321    
  47755000  -4232.8789    
  47756000  -4113.105     
  47757000  -4134.1793    
  47758000  -4090.3494    
  47759000  -4044.6812    
  47760000  -4085.4463    
  47761000  -4043.3432    
  47762000  -4100.548     
  47763000  -4015.3294    
  47764000  -4200.5293    
  47765000  -4041.3553    
  47766000  -4171.518     
  47767000  -4153.4626    
  47768000  -4193.2081    
  47769000  -4088.0864    
  47770000  -4122.1976    
  47771000  -4161.9963    
  47772000  -4197.8435    
  47773000  -4215.8666    
  47774000  -4203.4914    
  47775000  -4269.0391    
  47776000  -4118.6727    
  47777000  -4207.0847    
  47778000  -4171.1924    
  47779000  -4139.9711    
  47780000  -4134.934     
  47781000  -4088.7415    
  47782000  -4084.5771    
  47783000  -4128.9728    
  47784000  -4098.2041    
  47785000  -4104.8692    
  47786000  -4021.537     
  47787000  -3973.5263    
  47788000  -3983.3062    
  47789000  -3975.8127    
  47790000  -4158.1892    
  47791000  -4173.8027    
  47792000  -4179.4416    
  47793000  -4243.0721    
  47794000  -4175.4933    
  47795000  -4033.7615    
  47796000  -4085.5923    
  47797000  -3984.6293    
  47798000  -4018.6128    
  47799000  -4018.6525    
  47800000  -3954.9736    
  47801000  -4046.2747    
  47802000  -4011.3067    
  47803000  -4057.6819    
  47804000  -3954.1172    
  47805000  -4016.1133    
  47806000  -3948.1077    
  47807000  -3973.1702    
  47808000  -4031.6521    
  47809000  -4036.4595    
  47810000  -4118.474     
  47811000  -4058.8043    
  47812000  -4017.2533    
  47813000  -3967.4541    
  47814000  -4145.8311    
  47815000  -3996.7013    
  47816000  -4055.6385    
  47817000  -4085.7396    
  47818000  -4134.0461    
  47819000  -4083.0896    
  47820000  -4021.2426    
  47821000  -4099.0109    
  47822000  -4103.3755    
  47823000  -4074.2914    
  47824000  -4145.23      
  47825000  -4233.1434    
  47826000  -4186.4909    
  47827000  -4219.3128    
  47828000  -4220.2543    
  47829000  -4125.4224    
  47830000  -4134.6575    
  47831000  -4294.3237    
  47832000  -4213.2776    
  47833000  -4217.1261    
  47834000  -4179.4722    
  47835000  -4217.4862    
  47836000  -4206.2147    
  47837000  -4207.5929    
  47838000  -4082.8897    
  47839000  -4135.1766    
  47840000  -4099.0732    
  47841000  -4136.7054    
  47842000  -4155.9414    
  47843000  -4278.1179    
  47844000  -4155.3048    
  47845000  -4205.141     
  47846000  -4207.8285    
  47847000  -4290.2759    
  47848000  -4263.7695    
  47849000  -4314.2037    
  47850000  -4255.2623    
  47851000  -4265.4171    
  47852000  -4344.5071    
  47853000  -4332.2734    
  47854000  -4306.4194    
  47855000  -4230.3609    
  47856000  -4179.7031    
  47857000  -4233.8761    
  47858000  -4174.6263    
  47859000  -4280.9398    
  47860000  -4276.8979    
  47861000  -4281.3846    
  47862000  -4284.8268    
  47863000  -4333.5371    
  47864000  -4279.0221    
  47865000  -4245.5482    
  47866000  -4281.2806    
  47867000  -4261.2384    
  47868000  -4283.7449    
  47869000  -4163.7926    
  47870000  -4199.4916    
  47871000  -4215.0677    
  47872000  -4237.5886    
  47873000  -4213.5311    
  47874000  -4221.4021    
  47875000  -4162.4702    
  47876000  -4154.2476    
  47877000  -4134.1455    
  47878000  -4050.3905    
  47879000  -4107.9077    
  47880000  -4184.9752    
  47881000  -4126.5207    
  47882000  -4124.9266    
  47883000  -4118.4176    
  47884000  -4084.1799    
  47885000  -4054.8838    
  47886000  -4112.5548    
  47887000  -4126.0808    
  47888000  -4136.4082    
  47889000  -4122.3164    
  47890000  -4210.5584    
  47891000  -4159.2356    
  47892000  -4176.4748    
  47893000  -4222.4152    
  47894000  -4132.2296    
  47895000  -4201.395     
  47896000  -4151.5473    
  47897000  -4221.3491    
  47898000  -4234.9982    
  47899000  -4315.4662    
  47900000  -4245.6698    
  47901000  -4289.6783    
  47902000  -4148.6479    
  47903000  -4305.1416    
  47904000  -4254.5621    
  47905000  -4142.4844    
  47906000  -4159.2224    
  47907000  -4133.693     
  47908000  -4256.0799    
  47909000  -4223.4156    
  47910000  -4118.3614    
  47911000  -4235.5526    
  47912000  -4153.7681    
  47913000  -4189.3184    
  47914000  -4132.4816    
  47915000  -4209.8062    
  47916000  -4281.4205    
  47917000  -4171.3216    
  47918000  -4200.0324    
  47919000  -4279.777     
  47920000  -4219.3358    
  47921000  -4272.1846    
  47922000  -4321.3767    
  47923000  -4259.6348    
  47924000  -4230.7255    
  47925000  -4341.6183    
  47926000  -4269.3604    
  47927000  -4273.6188    
  47928000  -4287.4512    
  47929000  -4296.918     
  47930000  -4293.3666    
  47931000  -4310.8991    
  47932000  -4248.5401    
  47933000  -4296.149     
  47934000  -4253.28      
  47935000  -4345.2528    
  47936000  -4174.8792    
  47937000  -4212.1171    
  47938000  -4273.2142    
  47939000  -4212.2315    
  47940000  -4297.7208    
  47941000  -4239.485     
  47942000  -4291.2144    
  47943000  -4121.8622    
  47944000  -4213.637     
  47945000  -4189.1995    
  47946000  -4231.8046    
  47947000  -4300.5356    
  47948000  -4213.9978    
  47949000  -4251.4104    
  47950000  -4230.4909    
  47951000  -4314.5923    
  47952000  -4313.9549    
  47953000  -4295.0491    
  47954000  -4236.7507    
  47955000  -4257.22      
  47956000  -4168.5914    
  47957000  -4251.6671    
  47958000  -4268.139     
  47959000  -4240.9799    
  47960000  -4299.4601    
  47961000  -4302.4582    
  47962000  -4359.0718    
  47963000  -4448.8302    
  47964000  -4369.4577    
  47965000  -4459.4922    
  47966000  -4311.3116    
  47967000  -4355.5289    
  47968000  -4421.5653    
  47969000  -4396.2312    
  47970000  -4380.2128    
  47971000  -4414.9853    
  47972000  -4277.0006    
  47973000  -4262.8928    
  47974000  -4230.8597    
  47975000  -4249.9711    
  47976000  -4254.7928    
  47977000  -4255.5079    
  47978000  -4289.1184    
  47979000  -4314.3612    
  47980000  -4228.0657    
  47981000  -4259.1922    
  47982000  -4274.4389    
  47983000  -4261.4526    
  47984000  -4208.3494    
  47985000  -4237.7961    
  47986000  -4257.9617    
  47987000  -4259.375     
  47988000  -4145.4046    
  47989000  -4203.5949    
  47990000  -4212.0834    
  47991000  -4239.2881    
  47992000  -4253.7432    
  47993000  -4217.3033    
  47994000  -4279.5926    
  47995000  -4233.6104    
  47996000  -4317.1297    
  47997000  -4315.509     
  47998000  -4398.9313    
  47999000  -4253.8854    
  48000000  -4343.0947    
  48001000  -4446.0592    
  48002000  -4374.2246    
  48003000  -4262.4831    
  48004000  -4214.6251    
  48005000  -4215.0333    
  48006000  -4230.521     
  48007000  -4181.9818    
  48008000  -4284.3315    
  48009000  -4141.8895    
  48010000  -4218.3076    
  48011000  -4209.8946    
  48012000  -4107.9409    
  48013000  -4190.1861    
  48014000  -4142.8966    
  48015000  -4138.7783    
  48016000  -4062.8446    
  48017000  -4097.5598    
  48018000  -4170.3877    
  48019000  -4191.7334    
  48020000  -4086.068     
  48021000  -4114.1072    
  48022000  -4185.8646    
  48023000  -4198.897     
  48024000  -4170.7408    
  48025000  -4207.2993    
  48026000  -4148.3312    
  48027000  -4224.8081    
  48028000  -4191.4625    
  48029000  -4194.6804    
  48030000  -4246.2645    
  48031000  -4185.5853    
  48032000  -4133.227     
  48033000  -4140.805     
  48034000  -4244.9336    
  48035000  -4158.496     
  48036000  -4138.0245    
  48037000  -4074.5847    
  48038000  -4120.391     
  48039000  -4169.9916    
  48040000  -4056.8922    
  48041000  -4030.1765    
  48042000  -4138.8235    
  48043000  -4038.5084    
  48044000  -4126.3847    
  48045000  -4111.9993    
  48046000  -4130.2775    
  48047000  -4171.2714    
  48048000  -4133.8779    
  48049000  -4030.3315    
  48050000  -4094.801     
  48051000  -4075.9713    
  48052000  -4099.6797    
  48053000  -4062.0541    
  48054000  -3980.7949    
  48055000  -4026.3859    
  48056000  -4077.1543    
  48057000  -3996.8575    
  48058000  -4083.3333    
  48059000  -3975.5464    
  48060000  -4063.1131    
  48061000  -4090.6797    
  48062000  -3983.3603    
  48063000  -4008.5532    
  48064000  -3943.5338    
  48065000  -3953.0976    
  48066000  -3932.9558    
  48067000  -4051.8123    
  48068000  -3946.8643    
  48069000  -4023.634     
  48070000  -4007.4731    
  48071000  -4076.7976    
  48072000  -4097.9673    
  48073000  -4024.3303    
  48074000  -4015.6485    
  48075000  -4011.8442    
  48076000  -4002.2187    
  48077000  -4060.2214    
  48078000  -4023.7999    
  48079000  -4080.9381    
  48080000  -4020.0816    
  48081000  -3893.1175    
  48082000  -3929.174     
  48083000  -3878.7991    
  48084000  -3910.8557    
  48085000  -3937.3057    
  48086000  -3890.6281    
  48087000  -3902.3527    
  48088000  -3929.8386    
  48089000  -3935.6468    
  48090000  -3965.6707    
  48091000  -3936.8515    
  48092000  -3941.372     
  48093000  -3990.9605    
  48094000  -3966.4803    
  48095000  -3935.5256    
  48096000  -4010.6601    
  48097000  -4009.0863    
  48098000  -3987.5108    
  48099000  -4014.0939    
  48100000  -3980.16      
  48101000  -3945.502     
  48102000  -3906.2827    
  48103000  -3963.0986    
  48104000  -3884.2693    
  48105000  -3948.566     
  48106000  -3892.2347    
  48107000  -3923.4253    
  48108000  -3947.2495    
  48109000  -3982.0675    
  48110000  -4019.6122    
  48111000  -4010.8777    
  48112000  -3934.4372    
  48113000  -3965.0814    
  48114000  -3972.4931    
  48115000  -4069.3935    
  48116000  -4051.4106    
  48117000  -4049.8293    
  48118000  -4023.5614    
  48119000  -4041.6336    
  48120000  -4023.2496    
  48121000  -4062.2211    
  48122000  -3940.1541    
  48123000  -4027.6567    
  48124000  -3999.0202    
  48125000  -4097.8919    
  48126000  -4177.5232    
  48127000  -4221.0394    
  48128000  -4208.7142    
  48129000  -4188.9501    
  48130000  -4104.7006    
  48131000  -4112.7789    
  48132000  -4262.5512    
  48133000  -4124.0573    
  48134000  -4176.1024    
  48135000  -4176.4849    
  48136000  -4217.3581    
  48137000  -4122.2041    
  48138000  -4156.0291    
  48139000  -4188.8441    
  48140000  -4187.3601    
  48141000  -4171.9293    
  48142000  -4144.0496    
  48143000  -4179.9777    
  48144000  -4168.2963    
  48145000  -4181.5114    
  48146000  -4163.5184    
  48147000  -4210.83      
  48148000  -4183.4741    
  48149000  -4181.6055    
  48150000  -4187.3047    
  48151000  -4114.8629    
  48152000  -4243.618     
  48153000  -4092.3453    
  48154000  -4134.1688    
  48155000  -4038.5688    
  48156000  -4095.1374    
  48157000  -4083.4048    
  48158000  -4107.4243    
  48159000  -4077.4449    
  48160000  -4086.1429    
  48161000  -4081.1356    
  48162000  -3944.4729    
  48163000  -4089.5356    
  48164000  -4049.5933    
  48165000  -4090.8193    
  48166000  -3982.5032    
  48167000  -4037.6283    
  48168000  -3999.52      
  48169000  -4092.004     
  48170000  -4151.3192    
  48171000  -4104.825     
  48172000  -4053.4016    
  48173000  -4066.7178    
  48174000  -4089.8756    
  48175000  -4208.9629    
  48176000  -4141.9125    
  48177000  -4094.5819    
  48178000  -4123.6111    
  48179000  -4163.4032    
  48180000  -4249.4284    
  48181000  -4139.1773    
  48182000  -4165.4061    
  48183000  -4211.5357    
  48184000  -4223.5832    
  48185000  -4196.3248    
  48186000  -4251.7254    
  48187000  -4153.181     
  48188000  -4188.4573    
  48189000  -4175.8419    
  48190000  -4199.9606    
  48191000  -4252.4623    
  48192000  -4165.6397    
  48193000  -4191.6616    
  48194000  -4074.5928    
  48195000  -4148.9937    
  48196000  -4202.6576    
  48197000  -4086.948     
  48198000  -4048.7177    
  48199000  -4150.7294    
  48200000  -4034.6736    
  48201000  -4030.0471    
  48202000  -3996.3666    
  48203000  -4143.9189    
  48204000  -4080.8837    
  48205000  -4126.641     
  48206000  -4079.1512    
  48207000  -4139.2089    
  48208000  -4233.9182    
  48209000  -4078.4749    
  48210000  -4200.3489    
  48211000  -4265.5843    
  48212000  -4181.5094    
  48213000  -4226.2429    
  48214000  -4258.3524    
  48215000  -4194.4779    
  48216000  -4211.8207    
  48217000  -4163.8208    
  48218000  -4091.4642    
  48219000  -4059.0047    
  48220000  -3997.1315    
  48221000  -4097.0681    
  48222000  -4002.3885    
  48223000  -3952.0127    
  48224000  -4069.3644    
  48225000  -4027.6089    
  48226000  -4015.0197    
  48227000  -4061.4465    
  48228000  -4036.9719    
  48229000  -3960.0564    
  48230000  -3997.4977    
  48231000  -4085.7197    
  48232000  -3972.5903    
  48233000  -4049.5729    
  48234000  -3958.6951    
  48235000  -4046.2571    
  48236000  -4114.155     
  48237000  -4037.7182    
  48238000  -4041.2975    
  48239000  -4002.8688    
  48240000  -3987.7189    
  48241000  -3951.2413    
  48242000  -3973.0089    
  48243000  -4021.9732    
  48244000  -4064.546     
  48245000  -4125.905     
  48246000  -3980.5605    
  48247000  -4108.3815    
  48248000  -4007.1629    
  48249000  -3953.2937    
  48250000  -4025.193     
  48251000  -4043.2301    
  48252000  -4119.7992    
  48253000  -4047.1486    
  48254000  -4072.4583    
  48255000  -4135.5412    
  48256000  -4118.8025    
  48257000  -4157.5047    
  48258000  -4170.5283    
  48259000  -4067.4751    
  48260000  -4173.2412    
  48261000  -4052.6722    
  48262000  -4094.7878    
  48263000  -4107.5996    
  48264000  -4086.735     
  48265000  -4119.1859    
  48266000  -4103.5491    
  48267000  -4200.5752    
  48268000  -4222.6916    
  48269000  -4103.3171    
  48270000  -4163.6106    
  48271000  -4187.386     
  48272000  -4159.4145    
  48273000  -4158.4938    
  48274000  -4083.939     
  48275000  -4133.5715    
  48276000  -4041.982     
  48277000  -4124.8834    
  48278000  -4217.7445    
  48279000  -4187.1302    
  48280000  -4124.1152    
  48281000  -4166.4262    
  48282000  -4210.9622    
  48283000  -4274.1045    
  48284000  -4222.7656    
  48285000  -4159.7337    
  48286000  -4151.1186    
  48287000  -4213.7827    
  48288000  -4116.3333    
  48289000  -4120.8826    
  48290000  -4119.5509    
  48291000  -4051.9255    
  48292000  -4065.5324    
  48293000  -4137.7007    
  48294000  -4125.13      
  48295000  -4252.7529    
  48296000  -4103.34      
  48297000  -4159.8527    
  48298000  -4039.0202    
  48299000  -4092.8934    
  48300000  -3961.9407    
  48301000  -4120.1517    
  48302000  -4130.3173    
  48303000  -4052.1072    
  48304000  -4079.0508    
  48305000  -4028.2952    
  48306000  -4189.3588    
  48307000  -4100.131     
  48308000  -4101.2169    
  48309000  -4040.1612    
  48310000  -4110.3845    
  48311000  -4045.1396    
  48312000  -4101.4647    
  48313000  -4073.2976    
  48314000  -3999.6183    
  48315000  -3988.9548    
  48316000  -4025.3182    
  48317000  -4157.9415    
  48318000  -4068.5823    
  48319000  -4050.4961    
  48320000  -4120.7312    
  48321000  -4217.3893    
  48322000  -4187.1044    
  48323000  -4237.5239    
  48324000  -4118.1885    
  48325000  -4185.863     
  48326000  -4226.469     
  48327000  -4185.6183    
  48328000  -4234.9778    
  48329000  -4282.2989    
  48330000  -4194.2363    
  48331000  -4209.6941    
  48332000  -4270.706     
  48333000  -4279.0588    
  48334000  -4217.1923    
  48335000  -4145.2044    
  48336000  -4088.0592    
  48337000  -4154.1538    
  48338000  -4081.1461    
  48339000  -4059.4924    
  48340000  -4100.0513    
  48341000  -4036.3323    
  48342000  -4079.5002    
  48343000  -4150.0141    
  48344000  -4033.9029    
  48345000  -4106.5528    
  48346000  -4039.0951    
  48347000  -3986.1477    
  48348000  -4021.0568    
  48349000  -4068.3243    
  48350000  -4049.5687    
  48351000  -4080.9156    
  48352000  -4192.8323    
  48353000  -4224.671     
  48354000  -4030.5443    
  48355000  -4100.2262    
  48356000  -4116.3027    
  48357000  -4113.1913    
  48358000  -4131.7881    
  48359000  -4043.4342    
  48360000  -4087.56      
  48361000  -4149.3435    
  48362000  -4126.3389    
  48363000  -4135.0866    
  48364000  -4094.0155    
  48365000  -4102.7908    
  48366000  -4034.7396    
  48367000  -4111.8995    
  48368000  -4113.4169    
  48369000  -3949.7103    
  48370000  -4095.3207    
  48371000  -4158.3773    
  48372000  -4170.5024    
  48373000  -4164.8858    
  48374000  -4063.6731    
  48375000  -4121.8503    
  48376000  -4150.9773    
  48377000  -4079.5603    
  48378000  -4027.6286    
  48379000  -4078.0354    
  48380000  -4154.9272    
  48381000  -4043.81      
  48382000  -3989.9301    
  48383000  -3964.3181    
  48384000  -4037.2892    
  48385000  -3960.3976    
  48386000  -3913.2925    
  48387000  -3974.4875    
  48388000  -3874.8635    
  48389000  -3994.0107    
  48390000  -3994.5485    
  48391000  -4027.1509    
  48392000  -3953.9638    
  48393000  -3896.2325    
  48394000  -4005.3075    
  48395000  -3974.9789    
  48396000  -4013.4537    
  48397000  -3916.8218    
  48398000  -3968.6531    
  48399000  -3986.1517    
  48400000  -3942.8603    
  48401000  -3956.1357    
  48402000  -4036.6686    
  48403000  -3991.9885    
  48404000  -4010.9284    
  48405000  -4130.3535    
  48406000  -4090.3281    
  48407000  -4119.6476    
  48408000  -4172.6897    
  48409000  -4151.2827    
  48410000  -4054.6703    
  48411000  -4071.7146    
  48412000  -4037.9841    
  48413000  -4194.7668    
  48414000  -4087.171     
  48415000  -4102.4903    
  48416000  -4012.5939    
  48417000  -4077.2705    
  48418000  -4046.1025    
  48419000  -3960.4044    
  48420000  -4032.3718    
  48421000  -4000.4998    
  48422000  -4075.6118    
  48423000  -4062.2445    
  48424000  -4081.3459    
  48425000  -3975.289     
  48426000  -3947.6678    
  48427000  -3977.566     
  48428000  -4164.6084    
  48429000  -4131.5392    
  48430000  -4187.5792    
  48431000  -4145.7952    
  48432000  -4154.3517    
  48433000  -4143.6873    
  48434000  -4232.6322    
  48435000  -4164.9837    
  48436000  -4087.1699    
  48437000  -4157.3893    
  48438000  -4054.8711    
  48439000  -4025.7792    
  48440000  -4067.4887    
  48441000  -4153.1566    
  48442000  -4074.9682    
  48443000  -4187.4871    
  48444000  -4160.5999    
  48445000  -4180.9026    
  48446000  -4169.855     
  48447000  -4232.7587    
  48448000  -4175.2976    
  48449000  -4339.8695    
  48450000  -4269.9318    
  48451000  -4229.754     
  48452000  -4157.9694    
  48453000  -4237.9005    
  48454000  -4133.7108    
  48455000  -4089.7641    
  48456000  -4033.2159    
  48457000  -4082.9923    
  48458000  -4126.4774    
  48459000  -4054.2704    
  48460000  -4059.2168    
  48461000  -3994.2693    
  48462000  -4113.9943    
  48463000  -4138.0773    
  48464000  -4192.7163    
  48465000  -4131.8687    
  48466000  -4130.8186    
  48467000  -4048.3469    
  48468000  -4154.5192    
  48469000  -4143.4269    
  48470000  -4023.6223    
  48471000  -4028.0277    
  48472000  -4057.582     
  48473000  -4016.7271    
  48474000  -4119.7981    
  48475000  -4053.7706    
  48476000  -4014.416     
  48477000  -3989.9673    
  48478000  -4026.2339    
  48479000  -4008.0803    
  48480000  -4111.8339    
  48481000  -4080.2916    
  48482000  -4110.2495    
  48483000  -4010.5271    
  48484000  -4043.3936    
  48485000  -4051.7057    
  48486000  -4010.5704    
  48487000  -4129.7606    
  48488000  -4090.4699    
  48489000  -4160.6326    
  48490000  -4140.4183    
  48491000  -4193.6114    
  48492000  -4178.082     
  48493000  -4149.005     
  48494000  -4080.2538    
  48495000  -4159.7715    
  48496000  -4154.1582    
  48497000  -4192.6733    
  48498000  -4129.3178    
  48499000  -4160.5953    
  48500000  -4131.69      
  48501000  -4156.6531    
  48502000  -4157.9608    
  48503000  -4169.6383    
  48504000  -4075.9705    
  48505000  -4050.358     
  48506000  -4182.1785    
  48507000  -4123.2992    
  48508000  -4051.7181    
  48509000  -4022.8127    
  48510000  -4152.3455    
  48511000  -4109.4135    
  48512000  -4103.4716    
  48513000  -4062.4888    
  48514000  -4184.8693    
  48515000  -4102.5096    
  48516000  -4249.8608    
  48517000  -4056.7208    
  48518000  -4067.3461    
  48519000  -4021.8823    
  48520000  -4026.4077    
  48521000  -4067.749     
  48522000  -4115.8624    
  48523000  -3984.6961    
  48524000  -4131.8937    
  48525000  -4086.0893    
  48526000  -4049.9126    
  48527000  -4075.9147    
  48528000  -4155.6424    
  48529000  -4110.5214    
  48530000  -4070.9961    
  48531000  -4150.5733    
  48532000  -4106.2478    
  48533000  -4134.7618    
  48534000  -4114.084     
  48535000  -4141.0709    
  48536000  -4138.9716    
  48537000  -4071.678     
  48538000  -4209.0308    
  48539000  -4160.106     
  48540000  -4124.8465    
  48541000  -4220.6091    
  48542000  -4204.2633    
  48543000  -4211.3102    
  48544000  -4213.4797    
  48545000  -4244.0975    
  48546000  -4219.1435    
  48547000  -4185.9772    
  48548000  -4186.6268    
  48549000  -4250.3766    
  48550000  -4340.6253    
  48551000  -4317.6122    
  48552000  -4257.4318    
  48553000  -4374.7731    
  48554000  -4252.3241    
  48555000  -4188.5793    
  48556000  -4208.1378    
  48557000  -4183.96      
  48558000  -4292.5706    
  48559000  -4216.8755    
  48560000  -4031.0293    
  48561000  -4209.9176    
  48562000  -4183.0227    
  48563000  -4212.603     
  48564000  -4179.5411    
  48565000  -4090.9757    
  48566000  -4227.122     
  48567000  -4130.416     
  48568000  -4142.1216    
  48569000  -4122.0473    
  48570000  -4141.7506    
  48571000  -4110.7651    
  48572000  -4173.1387    
  48573000  -4137.9918    
  48574000  -4137.1486    
  48575000  -4106.3323    
  48576000  -4084.0727    
  48577000  -4084.7252    
  48578000  -4094.6931    
  48579000  -4141.3413    
  48580000  -4092.1607    
  48581000  -3979.8809    
  48582000  -3997.0476    
  48583000  -4034.4915    
  48584000  -4080.689     
  48585000  -3996.1277    
  48586000  -4092.4213    
  48587000  -4050.9146    
  48588000  -4047.0502    
  48589000  -4109.2383    
  48590000  -4017.3931    
  48591000  -4067.7111    
  48592000  -4079.3162    
  48593000  -4150.3873    
  48594000  -4056.9406    
  48595000  -4066.619     
  48596000  -4270.7259    
  48597000  -4123.1688    
  48598000  -4237.0161    
  48599000  -4274.5735    
  48600000  -4154.1238    
  48601000  -4050.3832    
  48602000  -4073.9731    
  48603000  -4146.7132    
  48604000  -4060.0869    
  48605000  -4098.5075    
  48606000  -4058.0817    
  48607000  -4138.0549    
  48608000  -4025.0468    
  48609000  -4185.0243    
  48610000  -4088.3941    
  48611000  -4120.1163    
  48612000  -4150.7192    
  48613000  -4100.445     
  48614000  -4011.3659    
  48615000  -3990.8661    
  48616000  -3964.6876    
  48617000  -3976.4322    
  48618000  -4016.0357    
  48619000  -3919.0652    
  48620000  -4014.488     
  48621000  -4055.6997    
  48622000  -4004.0994    
  48623000  -4031.7081    
  48624000  -4004.3053    
  48625000  -4064.3997    
  48626000  -4122.0578    
  48627000  -4054.0595    
  48628000  -4044.4583    
  48629000  -4108.5612    
  48630000  -3973.7156    
  48631000  -4091.3548    
  48632000  -4063.8243    
  48633000  -4114.9517    
  48634000  -4016.476     
  48635000  -4045.367     
  48636000  -3930.2281    
  48637000  -3996.0722    
  48638000  -3971.6823    
  48639000  -4073.3091    
  48640000  -4080.4751    
  48641000  -3964.9639    
  48642000  -4017.9285    
  48643000  -3982.7273    
  48644000  -4043.3691    
  48645000  -4176.946     
  48646000  -4120.3811    
  48647000  -4171.6787    
  48648000  -4142.9808    
  48649000  -4131.3547    
  48650000  -4139.9203    
  48651000  -4194.0143    
  48652000  -4084.9651    
  48653000  -4112.7363    
  48654000  -4038.0006    
  48655000  -4029.5268    
  48656000  -4082.9772    
  48657000  -4073.2788    
  48658000  -4070.5022    
  48659000  -4053.2009    
  48660000  -4131.0344    
  48661000  -3992.6614    
  48662000  -4162.6912    
  48663000  -4193.8259    
  48664000  -4112.689     
  48665000  -4016.6464    
  48666000  -4107.0814    
  48667000  -4079.7104    
  48668000  -4104.8607    
  48669000  -4087.9072    
  48670000  -4154.7929    
  48671000  -4065.417     
  48672000  -4109.5454    
  48673000  -4080.6132    
  48674000  -4141.5418    
  48675000  -4218.2003    
  48676000  -4093.1142    
  48677000  -4208.0087    
  48678000  -4126.6854    
  48679000  -4084.7024    
  48680000  -4161.4539    
  48681000  -4083.3019    
  48682000  -4212.9711    
  48683000  -4130.8518    
  48684000  -4111.4167    
  48685000  -4155.3632    
  48686000  -4107.6616    
  48687000  -4012.8465    
  48688000  -4181.4669    
  48689000  -4066.8917    
  48690000  -4056.0544    
  48691000  -4078.2329    
  48692000  -4054.8917    
  48693000  -4141.6007    
  48694000  -4010.2939    
  48695000  -4037.7707    
  48696000  -4012.3508    
  48697000  -3944.6027    
  48698000  -4035.9091    
  48699000  -3945.3181    
  48700000  -3984.5448    
  48701000  -3952.4339    
  48702000  -4035.4747    
  48703000  -4056.8537    
  48704000  -4022.5315    
  48705000  -3996.5263    
  48706000  -4107.2624    
  48707000  -4065.2751    
  48708000  -3974.765     
  48709000  -3969.2001    
  48710000  -3962.902     
  48711000  -3976.8821    
  48712000  -3930.2971    
  48713000  -3893.4941    
  48714000  -3938.3956    
  48715000  -3923.7997    
  48716000  -3925.8258    
  48717000  -3920.4283    
  48718000  -3920.1827    
  48719000  -3973.4828    
  48720000  -4014.2879    
  48721000  -3967.3947    
  48722000  -3974.6736    
  48723000  -3987.3008    
  48724000  -3997.1254    
  48725000  -3926.8927    
  48726000  -4097.0537    
  48727000  -3910.8181    
  48728000  -3955.8793    
  48729000  -3895.5945    
  48730000  -3813.8896    
  48731000  -3937.6646    
  48732000  -3846.4633    
  48733000  -3926.1376    
  48734000  -3952.5644    
  48735000  -3832.8689    
  48736000  -3856.535     
  48737000  -3880.3532    
  48738000  -3933.6787    
  48739000  -3978.9544    
  48740000  -3982.8966    
  48741000  -3937.1254    
  48742000  -3947.4349    
  48743000  -3961.9972    
  48744000  -3924.8961    
  48745000  -3892.53      
  48746000  -3876.8758    
  48747000  -3972.8227    
  48748000  -3906.4613    
  48749000  -4033.8555    
  48750000  -3990.2569    
  48751000  -4068.1142    
  48752000  -4008.1848    
  48753000  -4014.4558    
  48754000  -4036.575     
  48755000  -4037.7755    
  48756000  -4076.2237    
  48757000  -4092.8822    
  48758000  -4112.7011    
  48759000  -4066.2112    
  48760000  -4078.8353    
  48761000  -3892.4449    
  48762000  -4016.1646    
  48763000  -3973.5       
  48764000  -4058.0648    
  48765000  -3983.6771    
  48766000  -3948.0958    
  48767000  -4061.6051    
  48768000  -4053.8793    
  48769000  -4041.3936    
  48770000  -4074.3583    
  48771000  -3964.3175    
  48772000  -3988.6828    
  48773000  -3995.4484    
  48774000  -4006.3355    
  48775000  -4064.5177    
  48776000  -4017.0012    
  48777000  -4078.0583    
  48778000  -4002.579     
  48779000  -4089.2002    
  48780000  -4070.6631    
  48781000  -3981.9041    
  48782000  -4017.0905    
  48783000  -4094.4095    
  48784000  -4126.7562    
  48785000  -3994.1601    
  48786000  -4120.0664    
  48787000  -3977.6602    
  48788000  -3994.2314    
  48789000  -3986.1218    
  48790000  -4015.4533    
  48791000  -4068.8496    
  48792000  -4125.024     
  48793000  -4030.8353    
  48794000  -4002.9498    
  48795000  -4087.7715    
  48796000  -3971.7051    
  48797000  -4048.9326    
  48798000  -4011.6164    
  48799000  -4049.0549    
  48800000  -4104.7799    
  48801000  -3955.0006    
  48802000  -3995.461     
  48803000  -4063.7419    
  48804000  -4067.2069    
  48805000  -4073.9441    
  48806000  -4000.153     
  48807000  -4166.7201    
  48808000  -4079.0407    
  48809000  -4074.0401    
  48810000  -4077.078     
  48811000  -4049.8255    
  48812000  -4014.7714    
  48813000  -3983.4221    
  48814000  -3991.2545    
  48815000  -4023.278     
  48816000  -4035.7644    
  48817000  -3959.6126    
  48818000  -3980.3753    
  48819000  -4024.0661    
  48820000  -3984.8281    
  48821000  -3824.0275    
  48822000  -3970.3086    
  48823000  -3983.3516    
  48824000  -3931.0824    
  48825000  -3919.5635    
  48826000  -3906.0517    
  48827000  -3917.6455    
  48828000  -4000.334     
  48829000  -3905.8596    
  48830000  -3957.1137    
  48831000  -4042.5633    
  48832000  -3961.2348    
  48833000  -3945.5602    
  48834000  -3991.611     
  48835000  -4021.2404    
  48836000  -3986.2775    
  48837000  -3968.7555    
  48838000  -4026.3487    
  48839000  -4017.487     
  48840000  -4061.8495    
  48841000  -4101.9042    
  48842000  -3867.825     
  48843000  -3985.6906    
  48844000  -4066.4864    
  48845000  -4003.4729    
  48846000  -4027.4608    
  48847000  -4027.8137    
  48848000  -3958.152     
  48849000  -3887.9507    
  48850000  -3952.5641    
  48851000  -3990.9099    
  48852000  -3954.4276    
  48853000  -3977.3537    
  48854000  -4107.5224    
  48855000  -4098.5114    
  48856000  -4190.2187    
  48857000  -4087.8626    
  48858000  -4111.8854    
  48859000  -4116.8915    
  48860000  -4113.1128    
  48861000  -4106.9376    
  48862000  -4123.0776    
  48863000  -4145.1577    
  48864000  -4242.6144    
  48865000  -4183.2585    
  48866000  -4227.9682    
  48867000  -4237.4242    
  48868000  -4311.8135    
  48869000  -4302.3131    
  48870000  -4288.1676    
  48871000  -4243.9397    
  48872000  -4235.0518    
  48873000  -4181.0222    
  48874000  -4205.7221    
  48875000  -4163.6932    
  48876000  -4231.9051    
  48877000  -4209.0304    
  48878000  -4190.882     
  48879000  -4189.0159    
  48880000  -4358.3394    
  48881000  -4223.3158    
  48882000  -4284.7115    
  48883000  -4213.6049    
  48884000  -4216.4429    
  48885000  -4220.3566    
  48886000  -4249.765     
  48887000  -4284.7476    
  48888000  -4272.1661    
  48889000  -4265.5896    
  48890000  -4248.1574    
  48891000  -4209.5682    
  48892000  -4293.0627    
  48893000  -4304.5736    
  48894000  -4309.8139    
  48895000  -4204.5109    
  48896000  -4235.8891    
  48897000  -4200.4136    
  48898000  -4207.4663    
  48899000  -4191.0587    
  48900000  -4297.048     
  48901000  -4303.3372    
  48902000  -4244.9472    
  48903000  -4274.0315    
  48904000  -4303.0354    
  48905000  -4257.0032    
  48906000  -4279.7839    
  48907000  -4225.6184    
  48908000  -4235.9016    
  48909000  -4207.3104    
  48910000  -4225.1754    
  48911000  -4262.9886    
  48912000  -4167.3129    
  48913000  -4260.4332    
  48914000  -4097.4485    
  48915000  -4163.3329    
  48916000  -4141.7303    
  48917000  -4093.79      
  48918000  -4101.8848    
  48919000  -4108.2528    
  48920000  -4158.9725    
  48921000  -4071.4021    
  48922000  -4149.2468    
  48923000  -4130.3674    
  48924000  -4220.179     
  48925000  -4165.861     
  48926000  -4112.8402    
  48927000  -4225.0474    
  48928000  -4196.9092    
  48929000  -4167.9397    
  48930000  -4106.6269    
  48931000  -4110.1716    
  48932000  -4129.2574    
  48933000  -4188.6923    
  48934000  -4184.6065    
  48935000  -4163.5071    
  48936000  -4126.1608    
  48937000  -4167.763     
  48938000  -4152.903     
  48939000  -4122.7538    
  48940000  -4130.557     
  48941000  -4148.2702    
  48942000  -4029.9978    
  48943000  -4126.0479    
  48944000  -4071.1843    
  48945000  -4077.0723    
  48946000  -4044.6746    
  48947000  -4162.6847    
  48948000  -4168.093     
  48949000  -4156.1981    
  48950000  -4126.4321    
  48951000  -4193.5827    
  48952000  -4209.5819    
  48953000  -4139.4698    
  48954000  -4141.854     
  48955000  -4128.1911    
  48956000  -4180.8337    
  48957000  -4087.0557    
  48958000  -4092.3657    
  48959000  -4109.7246    
  48960000  -4089.6688    
  48961000  -4198.7127    
  48962000  -4180.1756    
  48963000  -4173.703     
  48964000  -4180.5697    
  48965000  -4123.5202    
  48966000  -4096.7972    
  48967000  -4028.6901    
  48968000  -4133.6054    
  48969000  -3973.5658    
  48970000  -4013.7463    
  48971000  -3968.3611    
  48972000  -4079.1258    
  48973000  -3974.7806    
  48974000  -3962.3883    
  48975000  -4042.268     
  48976000  -3969.988     
  48977000  -3936.884     
  48978000  -3977.97      
  48979000  -4003.505     
  48980000  -3980.0595    
  48981000  -3959.8469    
  48982000  -4031.4652    
  48983000  -3952.344     
  48984000  -4004.6269    
  48985000  -4128.9119    
  48986000  -4041.9628    
  48987000  -4064.8189    
  48988000  -4077.4808    
  48989000  -4107.8995    
  48990000  -4108.0078    
  48991000  -4110.2104    
  48992000  -4084.0242    
  48993000  -4163.479     
  48994000  -4136.5737    
  48995000  -4091.2758    
  48996000  -4073.7815    
  48997000  -4155.5929    
  48998000  -4026.8438    
  48999000  -4095.8768    
  49000000  -4098.9038    
  49001000  -4094.6902    
  49002000  -4119.4672    
  49003000  -4122.4331    
  49004000  -4100.3351    
  49005000  -4239.1693    
  49006000  -4100.8262    
  49007000  -4159.2831    
  49008000  -4177.1923    
  49009000  -4166.9176    
  49010000  -4270.6284    
  49011000  -4208.3684    
  49012000  -4293.911     
  49013000  -4189.1237    
  49014000  -4194.7746    
  49015000  -4247.0671    
  49016000  -4231.0563    
  49017000  -4153.0542    
  49018000  -4289.7487    
  49019000  -4154.9241    
  49020000  -4142.2844    
  49021000  -4125.4457    
  49022000  -4125.4969    
  49023000  -4223.7069    
  49024000  -4278.9773    
  49025000  -4199.9671    
  49026000  -4149.9492    
  49027000  -4209.3466    
  49028000  -4149.7689    
  49029000  -4230.2113    
  49030000  -4146.1636    
  49031000  -4158.5849    
  49032000  -4143.5219    
  49033000  -4166.0199    
  49034000  -4132.8644    
  49035000  -4168.676     
  49036000  -4117.7845    
  49037000  -4086.7009    
  49038000  -4029.3375    
  49039000  -4096.3517    
  49040000  -4115.9327    
  49041000  -4004.5651    
  49042000  -4017.6898    
  49043000  -4092.3603    
  49044000  -4175.8259    
  49045000  -4143.5814    
  49046000  -4017.1451    
  49047000  -4086.7546    
  49048000  -4042.1947    
  49049000  -4017.6034    
  49050000  -3902.3915    
  49051000  -3957.107     
  49052000  -4109.2605    
  49053000  -4057.4252    
  49054000  -3979.5012    
  49055000  -4049.1896    
  49056000  -3926.3042    
  49057000  -3874.3386    
  49058000  -3861.8222    
  49059000  -3867.673     
  49060000  -3902.6561    
  49061000  -3919.5668    
  49062000  -3927.4211    
  49063000  -3953.9165    
  49064000  -3895.755     
  49065000  -3966.196     
  49066000  -4066.8034    
  49067000  -4034.1877    
  49068000  -4017.317     
  49069000  -4098.2889    
  49070000  -3950.1767    
  49071000  -3993.1637    
  49072000  -3962.0537    
  49073000  -3865.6205    
  49074000  -3959.2605    
  49075000  -3955.2991    
  49076000  -4027.735     
  49077000  -3946.654     
  49078000  -3999.8179    
  49079000  -3941.4895    
  49080000  -3927.4602    
  49081000  -3990.6692    
  49082000  -3929.6972    
  49083000  -3912.3481    
  49084000  -4032.929     
  49085000  -4044.1765    
  49086000  -3950.1886    
  49087000  -3915.9765    
  49088000  -3964.553     
  49089000  -3960.2897    
  49090000  -3981.6821    
  49091000  -3938.4603    
  49092000  -3979.99      
  49093000  -4031.5387    
  49094000  -4035.7549    
  49095000  -3974.087     
  49096000  -4037.0622    
  49097000  -3968.8822    
  49098000  -3959.1778    
  49099000  -4018.4364    
  49100000  -4049.5748    
  49101000  -4006.4819    
  49102000  -4127.2479    
  49103000  -4147.5703    
  49104000  -4122.2558    
  49105000  -4075.112     
  49106000  -4060.3061    
  49107000  -4059.4679    
  49108000  -4100.6251    
  49109000  -4166.2145    
  49110000  -4163.546     
  49111000  -4278.9987    
  49112000  -4193.41      
  49113000  -4142.6999    
  49114000  -4184.1683    
  49115000  -4180.3625    
  49116000  -4226.8969    
  49117000  -4177.5525    
  49118000  -4191.765     
  49119000  -4284.6648    
  49120000  -4171.886     
  49121000  -4171.6914    
  49122000  -4142.5521    
  49123000  -4037.3035    
  49124000  -4087.5895    
  49125000  -4144.417     
  49126000  -4270.2429    
  49127000  -4112.4056    
  49128000  -4246.1688    
  49129000  -4181.0308    
  49130000  -4115.7417    
  49131000  -4111.388     
  49132000  -4189.4467    
  49133000  -4026.0607    
  49134000  -4189.0252    
  49135000  -4178.3146    
  49136000  -4214.0237    
  49137000  -4260.4638    
  49138000  -4162.1655    
  49139000  -4197.2042    
  49140000  -4140.04      
  49141000  -4153.3373    
  49142000  -4104.4059    
  49143000  -4147.1638    
  49144000  -4267.0248    
  49145000  -4151.9064    
  49146000  -4259.3372    
  49147000  -4230.9589    
  49148000  -4221.9275    
  49149000  -4249.8331    
  49150000  -4276.7614    
  49151000  -4238.9578    
  49152000  -4241.6065    
  49153000  -4130.0996    
  49154000  -4296.4089    
  49155000  -4243.3677    
  49156000  -4280.417     
  49157000  -4293.8851    
  49158000  -4290.7731    
  49159000  -4167.045     
  49160000  -4136.5344    
  49161000  -4207.318     
  49162000  -4211.3754    
  49163000  -4202.8463    
  49164000  -4052.4779    
  49165000  -4037.3078    
  49166000  -4081.6383    
  49167000  -4139.7445    
  49168000  -4096.5805    
  49169000  -4080.7924    
  49170000  -4041.7701    
  49171000  -3992.9455    
  49172000  -3998.2853    
  49173000  -4068.6143    
  49174000  -4037.286     
  49175000  -4151.2278    
  49176000  -4088.7748    
  49177000  -4047.2717    
  49178000  -4093.8761    
  49179000  -4024.8527    
  49180000  -4157.6026    
  49181000  -4119.5574    
  49182000  -4178.6569    
  49183000  -4163.85      
  49184000  -4011.9906    
  49185000  -3999.3094    
  49186000  -4119.7934    
  49187000  -4108.5132    
  49188000  -4116.8343    
  49189000  -4114.7191    
  49190000  -4147.0698    
  49191000  -4115.9168    
  49192000  -4079.1028    
  49193000  -4103.8098    
  49194000  -4174.4176    
  49195000  -4162.0242    
  49196000  -4024.4765    
  49197000  -4113.9982    
  49198000  -4149.6763    
  49199000  -4106.9546    
  49200000  -4156.6338    
  49201000  -4140.6512    
  49202000  -4125.7234    
  49203000  -4058.0932    
  49204000  -4151.6891    
  49205000  -4159.0874    
  49206000  -4108.4265    
  49207000  -4216.8389    
  49208000  -4159.1414    
  49209000  -4119.4998    
  49210000  -4077.6113    
  49211000  -4128.1402    
  49212000  -4166.0662    
  49213000  -4137.8521    
  49214000  -4180.4065    
  49215000  -4170.1848    
  49216000  -4163.9178    
  49217000  -4204.1651    
  49218000  -4274.8098    
  49219000  -4185.2699    
  49220000  -4255.3664    
  49221000  -4216.5608    
  49222000  -4197.7631    
  49223000  -4195.4298    
  49224000  -4202.9786    
  49225000  -4255.4325    
  49226000  -4267.9495    
  49227000  -4354.5352    
  49228000  -4298.2931    
  49229000  -4281.4792    
  49230000  -4322.9825    
  49231000  -4270.471     
  49232000  -4319.1007    
  49233000  -4280.4925    
  49234000  -4226.2686    
  49235000  -4254.5324    
  49236000  -4377.3233    
  49237000  -4367.3712    
  49238000  -4239.9306    
  49239000  -4306.9888    
  49240000  -4259.1991    
  49241000  -4263.4744    
  49242000  -4229.8817    
  49243000  -4222.0117    
  49244000  -4223.6418    
  49245000  -4114.7243    
  49246000  -4144.2419    
  49247000  -4226.9762    
  49248000  -4163.6375    
  49249000  -4235.5844    
  49250000  -4142.6804    
  49251000  -4186.448     
  49252000  -4156.5045    
  49253000  -4216.8378    
  49254000  -4164.714     
  49255000  -4190.0715    
  49256000  -4231.6725    
  49257000  -4112.5016    
  49258000  -4151.6896    
  49259000  -4035.1475    
  49260000  -4181.1852    
  49261000  -4089.0097    
  49262000  -4061.5496    
  49263000  -4083.2299    
  49264000  -4099.9101    
  49265000  -4126.3861    
  49266000  -4058.0071    
  49267000  -4132.297     
  49268000  -4025.7488    
  49269000  -4110.5074    
  49270000  -4212.4498    
  49271000  -4151.0857    
  49272000  -4065.6785    
  49273000  -4081.3066    
  49274000  -4059.7168    
  49275000  -4088.5059    
  49276000  -4040.0431    
  49277000  -4040.7724    
  49278000  -4099.5338    
  49279000  -4050.434     
  49280000  -3948.359     
  49281000  -3977.151     
  49282000  -4021.2355    
  49283000  -4047.6019    
  49284000  -3991.954     
  49285000  -4071.7138    
  49286000  -4071.4878    
  49287000  -4054.775     
  49288000  -4035.61      
  49289000  -4058.1849    
  49290000  -4019.1286    
  49291000  -4078.7006    
  49292000  -4149.4744    
  49293000  -4153.0171    
  49294000  -4062.0807    
  49295000  -4250.0212    
  49296000  -4102.8447    
  49297000  -4051.2016    
  49298000  -4178.7158    
  49299000  -4183.4401    
  49300000  -4074.1941    
  49301000  -4208.549     
  49302000  -4243.9078    
  49303000  -4149.6033    
  49304000  -4082.9129    
  49305000  -4218.8934    
  49306000  -4268.1641    
  49307000  -4179.4659    
  49308000  -4269.9472    
  49309000  -4253.9685    
  49310000  -4259.1935    
  49311000  -4212.1467    
  49312000  -4255.7186    
  49313000  -4254.2119    
  49314000  -4212.2013    
  49315000  -4221.9998    
  49316000  -4196.0704    
  49317000  -4257.2829    
  49318000  -4160.4619    
  49319000  -4163.507     
  49320000  -4154.0841    
  49321000  -4175.2641    
  49322000  -4082.0044    
  49323000  -4210.6923    
  49324000  -4076.3084    
  49325000  -4095.5116    
  49326000  -4044.4278    
  49327000  -4105.8882    
  49328000  -4103.7305    
  49329000  -4018.5076    
  49330000  -4013.0537    
  49331000  -3967.2555    
  49332000  -3989.747     
  49333000  -3987.2585    
  49334000  -3975.715     
  49335000  -3940.8491    
  49336000  -4005.5634    
  49337000  -4023.7812    
  49338000  -3959.5154    
  49339000  -3969.6325    
  49340000  -4028.4523    
  49341000  -4053.639     
  49342000  -4139.5205    
  49343000  -4110.0511    
  49344000  -4089.9972    
  49345000  -4264.425     
  49346000  -4101.8361    
  49347000  -4149.3614    
  49348000  -4162.5135    
  49349000  -4084.9038    
  49350000  -4159.6972    
  49351000  -4204.4838    
  49352000  -4159.0429    
  49353000  -4094.5485    
  49354000  -4096.4356    
  49355000  -4132.3222    
  49356000  -4118.8679    
  49357000  -4204.5176    
  49358000  -4125.604     
  49359000  -4205.2165    
  49360000  -4213.3294    
  49361000  -4130.8316    
  49362000  -4242.4611    
  49363000  -4238.6326    
  49364000  -4263.9334    
  49365000  -4246.7943    
  49366000  -4244.8831    
  49367000  -4318.2835    
  49368000  -4231.879     
  49369000  -4229.4126    
  49370000  -4124.342     
  49371000  -4119.7749    
  49372000  -4047.0355    
  49373000  -3996.9366    
  49374000  -4028.4228    
  49375000  -4067.7535    
  49376000  -3988.5941    
  49377000  -4043.774     
  49378000  -4061.2459    
  49379000  -4043.9735    
  49380000  -4026.034     
  49381000  -4110.3965    
  49382000  -4033.4567    
  49383000  -4104.9442    
  49384000  -4053.3919    
  49385000  -4155.1548    
  49386000  -4114.7924    
  49387000  -4001.6949    
  49388000  -4072.5525    
  49389000  -4098.1376    
  49390000  -4098.6928    
  49391000  -4163.6232    
  49392000  -4081.7638    
  49393000  -4018.7614    
  49394000  -4044.7548    
  49395000  -4067.0951    
  49396000  -4146.7244    
  49397000  -4121.0315    
  49398000  -4064.4908    
  49399000  -4128.0593    
  49400000  -4158.5805    
  49401000  -4169.4896    
  49402000  -4072.4979    
  49403000  -4164.1141    
  49404000  -4114.5604    
  49405000  -4271.8799    
  49406000  -4234.0859    
  49407000  -4216.0098    
  49408000  -4254.6981    
  49409000  -4242.5406    
  49410000  -4204.2844    
  49411000  -4267.5312    
  49412000  -4293.4313    
  49413000  -4228.2102    
  49414000  -4178.4256    
  49415000  -4336.2469    
  49416000  -4194.124     
  49417000  -4234.1624    
  49418000  -4305.9658    
  49419000  -4242.0656    
  49420000  -4285.2147    
  49421000  -4277.5164    
  49422000  -4269.015     
  49423000  -4299.5681    
  49424000  -4185.0525    
  49425000  -4286.6005    
  49426000  -4124.9432    
  49427000  -4136.7906    
  49428000  -4161.0822    
  49429000  -4260.741     
  49430000  -4206.2949    
  49431000  -4163.6545    
  49432000  -4180.4912    
  49433000  -4289.7713    
  49434000  -4185.6307    
  49435000  -4232.1418    
  49436000  -4213.2631    
  49437000  -4238.5376    
  49438000  -4267.3027    
  49439000  -4225.8152    
  49440000  -4201.1058    
  49441000  -4300.2095    
  49442000  -4193.4225    
  49443000  -4187.3865    
  49444000  -4302.8904    
  49445000  -4236.9531    
  49446000  -4299.7213    
  49447000  -4205.2403    
  49448000  -4160.7473    
  49449000  -4255.1208    
  49450000  -4167.6321    
  49451000  -4153.5205    
  49452000  -4200.3639    
  49453000  -4226.2698    
  49454000  -4143.3791    
  49455000  -4208.3498    
  49456000  -4151.7771    
  49457000  -4186.2032    
  49458000  -4270.8998    
  49459000  -4286.8837    
  49460000  -4196.7889    
  49461000  -4196.9328    
  49462000  -4167.1422    
  49463000  -4247.2075    
  49464000  -4149.3716    
  49465000  -4272.8572    
  49466000  -4226.1799    
  49467000  -4348.0195    
  49468000  -4307.2217    
  49469000  -4217.1752    
  49470000  -4321.8914    
  49471000  -4250.1385    
  49472000  -4360.197     
  49473000  -4296.627     
  49474000  -4270.2778    
  49475000  -4298.6082    
  49476000  -4211.9304    
  49477000  -4353.4863    
  49478000  -4211.9278    
  49479000  -4183.4989    
  49480000  -4277.8073    
  49481000  -4429.8217    
  49482000  -4303.9978    
  49483000  -4268.8367    
  49484000  -4334.9821    
  49485000  -4236.025     
  49486000  -4315.9412    
  49487000  -4386.9049    
  49488000  -4283.3997    
  49489000  -4323.4357    
  49490000  -4409.4763    
  49491000  -4374.446     
  49492000  -4412.7513    
  49493000  -4313.8646    
  49494000  -4281.0571    
  49495000  -4307.3976    
  49496000  -4322.734     
  49497000  -4356.2672    
  49498000  -4286.63      
  49499000  -4271.5114    
  49500000  -4309.5807    
  49501000  -4406.9147    
  49502000  -4331.7734    
  49503000  -4308.9216    
  49504000  -4299.2961    
  49505000  -4313.0541    
  49506000  -4343.5731    
  49507000  -4390.6401    
  49508000  -4301.5457    
  49509000  -4364.092     
  49510000  -4400.2379    
  49511000  -4345.6385    
  49512000  -4381.8191    
  49513000  -4308.8947    
  49514000  -4300.9193    
  49515000  -4237.114     
  49516000  -4262.5536    
  49517000  -4265.6998    
  49518000  -4374.942     
  49519000  -4299.6821    
  49520000  -4286.0879    
  49521000  -4391.0905    
  49522000  -4293.3398    
  49523000  -4196.6633    
  49524000  -4343.9982    
  49525000  -4354.3788    
  49526000  -4328.9847    
  49527000  -4320.0983    
  49528000  -4381.4486    
  49529000  -4384.7717    
  49530000  -4300.3634    
  49531000  -4317.847     
  49532000  -4336.3505    
  49533000  -4365.922     
  49534000  -4279.8615    
  49535000  -4338.6666    
  49536000  -4314.1876    
  49537000  -4412.8951    
  49538000  -4321.4786    
  49539000  -4325.6333    
  49540000  -4394.1232    
  49541000  -4393.1168    
  49542000  -4340.7781    
  49543000  -4364.1292    
  49544000  -4320.6698    
  49545000  -4425.5624    
  49546000  -4307.3584    
  49547000  -4384.9403    
  49548000  -4343.8548    
  49549000  -4321.2374    
  49550000  -4255.0017    
  49551000  -4338.1179    
  49552000  -4356.2506    
  49553000  -4381.652     
  49554000  -4322.1773    
  49555000  -4346.6201    
  49556000  -4316.7493    
  49557000  -4258.7601    
  49558000  -4349.9633    
  49559000  -4242.8348    
  49560000  -4294.4292    
  49561000  -4438.2544    
  49562000  -4232.1019    
  49563000  -4244.2291    
  49564000  -4289.7841    
  49565000  -4244.5885    
  49566000  -4115.6865    
  49567000  -4262.3003    
  49568000  -4295.3624    
  49569000  -4279.3134    
  49570000  -4358.4592    
  49571000  -4270.4821    
  49572000  -4231.7581    
  49573000  -4243.8116    
  49574000  -4259.0927    
  49575000  -4286.2459    
  49576000  -4192.5466    
  49577000  -4173.9163    
  49578000  -4222.4634    
  49579000  -4244.5246    
  49580000  -4305.5138    
  49581000  -4148.3559    
  49582000  -4095.4727    
  49583000  -4160.5493    
  49584000  -4231.5292    
  49585000  -4046.0206    
  49586000  -4118.9982    
  49587000  -4134.5754    
  49588000  -4109.6746    
  49589000  -4113.281     
  49590000  -4046.4183    
  49591000  -4064.1784    
  49592000  -4111.9209    
  49593000  -4097.8927    
  49594000  -4061.1088    
  49595000  -4084.9278    
  49596000  -4051.6425    
  49597000  -4032.9985    
  49598000  -4067.9125    
  49599000  -4118.2496    
  49600000  -4120.7823    
  49601000  -4091.2302    
  49602000  -4103.7225    
  49603000  -4077.2901    
  49604000  -4152.8529    
  49605000  -4158.0383    
  49606000  -4108.1962    
  49607000  -4088.3514    
  49608000  -4116.7659    
  49609000  -4127.052     
  49610000  -4173.403     
  49611000  -4165.1219    
  49612000  -4135.2671    
  49613000  -4191.2639    
  49614000  -4123.7565    
  49615000  -4123.636     
  49616000  -4167.0431    
  49617000  -4186.6442    
  49618000  -4071.8743    
  49619000  -4192.7576    
  49620000  -4117.2913    
  49621000  -4128.2036    
  49622000  -4184.5779    
  49623000  -4087.152     
  49624000  -4094.7666    
  49625000  -4165.0149    
  49626000  -4227.5316    
  49627000  -4274.4642    
  49628000  -4190.4633    
  49629000  -4153.1123    
  49630000  -4182.5086    
  49631000  -4234.3248    
  49632000  -4159.5594    
  49633000  -4140.6834    
  49634000  -4205.3639    
  49635000  -4162.9109    
  49636000  -4258.0427    
  49637000  -4114.2105    
  49638000  -4278.9978    
  49639000  -4141.8802    
  49640000  -4148.7773    
  49641000  -4135.3911    
  49642000  -4145.2206    
  49643000  -4183.6116    
  49644000  -4180.0337    
  49645000  -4167.7815    
  49646000  -4183.1643    
  49647000  -4182.4956    
  49648000  -4118.4757    
  49649000  -4138.3361    
  49650000  -4177.7953    
  49651000  -4117.5827    
  49652000  -4229.3797    
  49653000  -4283.6267    
  49654000  -4140.8017    
  49655000  -4126.3432    
  49656000  -4177.6163    
  49657000  -4193.4917    
  49658000  -4159.9529    
  49659000  -4176.0172    
  49660000  -4220.003     
  49661000  -4237.5189    
  49662000  -4396.7728    
  49663000  -4220.6389    
  49664000  -4264.685     
  49665000  -4264.2871    
  49666000  -4241.9898    
  49667000  -4279.5202    
  49668000  -4213.8514    
  49669000  -4282.9827    
  49670000  -4316.8252    
  49671000  -4252.3216    
  49672000  -4188.142     
  49673000  -4238.1016    
  49674000  -4321.0022    
  49675000  -4300.3431    
  49676000  -4225.3927    
  49677000  -4242.3407    
  49678000  -4209.1231    
  49679000  -4218.2706    
  49680000  -4224.7872    
  49681000  -4257.5448    
  49682000  -4197.9482    
  49683000  -4264.2071    
  49684000  -4338.5398    
  49685000  -4373.2326    
  49686000  -4327.6944    
  49687000  -4269.2256    
  49688000  -4252.3957    
  49689000  -4272.1923    
  49690000  -4239.7614    
  49691000  -4361.675     
  49692000  -4309.5446    
  49693000  -4302.8114    
  49694000  -4281.2133    
  49695000  -4305.4342    
  49696000  -4268.6874    
  49697000  -4270.6268    
  49698000  -4344.9189    
  49699000  -4315.5284    
  49700000  -4183.0803    
  49701000  -4129.5362    
  49702000  -4138.9354    
  49703000  -4196.1365    
  49704000  -4174.3845    
  49705000  -4221.6492    
  49706000  -4196.0463    
  49707000  -4199.4785    
  49708000  -4217.8292    
  49709000  -4223.9186    
  49710000  -4262.7252    
  49711000  -4249.286     
  49712000  -4361.3061    
  49713000  -4277.6188    
  49714000  -4394.3198    
  49715000  -4443.2325    
  49716000  -4321.4041    
  49717000  -4242.3541    
  49718000  -4258.8096    
  49719000  -4327.354     
  49720000  -4231.1775    
  49721000  -4225.5029    
  49722000  -4263.6167    
  49723000  -4266.1593    
  49724000  -4226.648     
  49725000  -4162.3753    
  49726000  -4195.1381    
  49727000  -4224.9681    
  49728000  -4176.0093    
  49729000  -4194.9918    
  49730000  -4167.3182    
  49731000  -4185.965     
  49732000  -4242.4335    
  49733000  -4174.0109    
  49734000  -4160.4674    
  49735000  -4090.6671    
  49736000  -4058.3144    
  49737000  -4265.1655    
  49738000  -4158.8307    
  49739000  -4159.9488    
  49740000  -4086.4402    
  49741000  -4157.321     
  49742000  -4097.1151    
  49743000  -4084.9451    
  49744000  -4175.9332    
  49745000  -4081.0608    
  49746000  -4037.1726    
  49747000  -4103.8996    
  49748000  -4141.0419    
  49749000  -4095.8382    
  49750000  -4182.2795    
  49751000  -4042.534     
  49752000  -4013.5462    
  49753000  -4110.9077    
  49754000  -4007.1909    
  49755000  -4029.2804    
  49756000  -4055.6232    
  49757000  -4159.6522    
  49758000  -4146.6845    
  49759000  -4125.5782    
  49760000  -4020.4251    
  49761000  -4215.8567    
  49762000  -4099.3002    
  49763000  -4074.3914    
  49764000  -4251.1274    
  49765000  -4171.6043    
  49766000  -4147.8932    
  49767000  -4146.7173    
  49768000  -4155.3557    
  49769000  -4183.0164    
  49770000  -4171.0446    
  49771000  -4180.3879    
  49772000  -4083.4757    
  49773000  -4175.8039    
  49774000  -4203.9033    
  49775000  -4168.4232    
  49776000  -4110.6714    
  49777000  -4147.013     
  49778000  -4176.112     
  49779000  -4083.4158    
  49780000  -4027.5249    
  49781000  -3968.7881    
  49782000  -4081.914     
  49783000  -4071.2626    
  49784000  -4102.839     
  49785000  -4148.8337    
  49786000  -4145.2721    
  49787000  -4141.1826    
  49788000  -4021.0903    
  49789000  -4148.4225    
  49790000  -4064.3144    
  49791000  -4132.4464    
  49792000  -4120.1018    
  49793000  -4103.591     
  49794000  -4088.7031    
  49795000  -4069.4854    
  49796000  -4060.6463    
  49797000  -4039.5529    
  49798000  -4094.7138    
  49799000  -4207.8304    
  49800000  -3971.8718    
  49801000  -4088.8995    
  49802000  -4189.7323    
  49803000  -4109.8458    
  49804000  -4171.0452    
  49805000  -4226.0058    
  49806000  -4190.3629    
  49807000  -4118.0047    
  49808000  -4196.6244    
  49809000  -4249.8244    
  49810000  -4162.6847    
  49811000  -4191.2533    
  49812000  -4207.3156    
  49813000  -4204.7139    
  49814000  -4181.9778    
  49815000  -4146.0881    
  49816000  -4205.7583    
  49817000  -4244.2649    
  49818000  -4188.73      
  49819000  -3990.1976    
  49820000  -4187.6582    
  49821000  -4163.042     
  49822000  -4193.7787    
  49823000  -4159.4503    
  49824000  -4115.9538    
  49825000  -4186.9703    
  49826000  -4111.727     
  49827000  -4102.7227    
  49828000  -4111.4772    
  49829000  -4100.828     
  49830000  -4074.7944    
  49831000  -4181.274     
  49832000  -4299.4617    
  49833000  -4168.641     
  49834000  -4248.66      
  49835000  -4161.7754    
  49836000  -4155.4336    
  49837000  -4244.4507    
  49838000  -4227.0073    
  49839000  -4132.4133    
  49840000  -4192.6356    
  49841000  -4128.1848    
  49842000  -4318.0363    
  49843000  -4198.5788    
  49844000  -4180.9288    
  49845000  -4062.4676    
  49846000  -4114.9851    
  49847000  -4245.8089    
  49848000  -4245.7067    
  49849000  -4117.9283    
  49850000  -4218.6323    
  49851000  -4272.5095    
  49852000  -4195.972     
  49853000  -4260.4481    
  49854000  -4119.3563    
  49855000  -4167.7204    
  49856000  -4262.3228    
  49857000  -4141.9111    
  49858000  -4212.7703    
  49859000  -4224.1258    
  49860000  -4215.9283    
  49861000  -4138.7092    
  49862000  -4220.1661    
  49863000  -4219.0415    
  49864000  -4189.1352    
  49865000  -4185.317     
  49866000  -4071.9427    
  49867000  -4077.5427    
  49868000  -4124.1267    
  49869000  -4187.2167    
  49870000  -4104.4997    
  49871000  -4115.5204    
  49872000  -4086.8402    
  49873000  -4033.1591    
  49874000  -4033.5513    
  49875000  -4024.8965    
  49876000  -3859.8405    
  49877000  -3867.3838    
  49878000  -3876.3338    
  49879000  -3937.1463    
  49880000  -3836.5445    
  49881000  -3962.3171    
  49882000  -4072.6669    
  49883000  -4010.4835    
  49884000  -3985.1231    
  49885000  -3907.7839    
  49886000  -3947.2789    
  49887000  -3890.6872    
  49888000  -4036.7234    
  49889000  -3880.2756    
  49890000  -3900.8181    
  49891000  -3972.147     
  49892000  -3901.578     
  49893000  -4038.7835    
  49894000  -4085.6122    
  49895000  -3975.8408    
  49896000  -4006.849     
  49897000  -4141.4451    
  49898000  -4131.2893    
  49899000  -4037.6384    
  49900000  -4060.8469    
  49901000  -3961.1841    
  49902000  -4010.1231    
  49903000  -3967.847     
  49904000  -3998.9191    
  49905000  -3922.0785    
  49906000  -4037.587     
  49907000  -3857.9673    
  49908000  -3921.7444    
  49909000  -3925.1486    
  49910000  -3872.0575    
  49911000  -3873.6439    
  49912000  -3901.5435    
  49913000  -4047.8808    
  49914000  -3835.8087    
  49915000  -3913.1097    
  49916000  -4006.2242    
  49917000  -3984.3439    
  49918000  -3918.4162    
  49919000  -3962.0899    
  49920000  -3950.6457    
  49921000  -4002.5926    
  49922000  -3949.4983    
  49923000  -3917.8281    
  49924000  -3951.7102    
  49925000  -3850.9769    
  49926000  -3979.9458    
  49927000  -3889.5196    
  49928000  -4056.1285    
  49929000  -4026.9335    
  49930000  -4029.1528    
  49931000  -4052.1112    
  49932000  -4009.7704    
  49933000  -3993.1047    
  49934000  -4059.4714    
  49935000  -4063.0577    
  49936000  -3880.9005    
  49937000  -3994.0164    
  49938000  -4053.2868    
  49939000  -4021.3867    
  49940000  -4048.2618    
  49941000  -4002.2316    
  49942000  -4022.8129    
  49943000  -4064.7801    
  49944000  -4165.5803    
  49945000  -4053.5007    
  49946000  -4040.9716    
  49947000  -4034.395     
  49948000  -4028.0339    
  49949000  -4034.178     
  49950000  -3928.9571    
  49951000  -3905.7976    
  49952000  -3929.7364    
  49953000  -3806.4367    
  49954000  -3917.6281    
  49955000  -3980.1724    
  49956000  -3954.9272    
  49957000  -3939.3191    
  49958000  -3951.9821    
  49959000  -4031.9854    
  49960000  -4124.1364    
  49961000  -4044.2315    
  49962000  -4042.4947    
  49963000  -4054.4166    
  49964000  -4001.2853    
  49965000  -3983.0004    
  49966000  -4045.9482    
  49967000  -4079.7225    
  49968000  -4002.4997    
  49969000  -4028.5634    
  49970000  -4092.464     
  49971000  -4032.4387    
  49972000  -3977.6939    
  49973000  -4056.5169    
  49974000  -4070.3816    
  49975000  -3988.5247    
  49976000  -3966.4187    
  49977000  -4011.4881    
  49978000  -4029.012     
  49979000  -4060.3478    
  49980000  -4095.1332    
  49981000  -4005.4579    
  49982000  -3932.7758    
  49983000  -4001.1864    
  49984000  -3954.2288    
  49985000  -4038.5074    
  49986000  -4077.6125    
  49987000  -4003.7777    
  49988000  -4090.336     
  49989000  -4112.7831    
  49990000  -4141.9591    
  49991000  -4111.0645    
  49992000  -4033.4073    
  49993000  -4036.1686    
  49994000  -4016.131     
  49995000  -4061.2795    
  49996000  -4085.0701    
  49997000  -4106.4663    
  49998000  -4091.3732    
  49999000  -3992.4715    
  50000000  -4027.7467    
  50001000  -4061.0637    
  50002000  -4010.7102    
  50003000  -4114.0047    
  50004000  -3923.2209    
  50005000  -4030.1417    
  50006000  -4004.4914    
  50007000  -4058.3501    
  50008000  -4087.5873    
  50009000  -4120.181     
  50010000  -4100.7584    
  50011000  -4106.3545    
  50012000  -4078.9725    
  50013000  -4203.5224    
  50014000  -3945.9626    
  50015000  -4061.452     
  50016000  -4027.5583    
  50017000  -3940.1415    
  50018000  -3982.2788    
  50019000  -3975.4162    
  50020000  -3941.3185    
  50021000  -3899.3709    
  50022000  -3960.2866    
  50023000  -4022.0627    
  50024000  -3972.5627    
  50025000  -3985.6581    
  50026000  -4032.6865    
  50027000  -3962.6614    
  50028000  -3937.8819    
  50029000  -3914.0051    
  50030000  -3953.6459    
  50031000  -3876.0292    
  50032000  -3886.8063    
  50033000  -3968.9497    
  50034000  -3936.4465    
  50035000  -3944.3401    
  50036000  -3968.5112    
  50037000  -4062.1369    
  50038000  -3928.7916    
  50039000  -3958.7901    
  50040000  -3894.9277    
  50041000  -3879.4898    
  50042000  -3954.0412    
  50043000  -3898.4035    
  50044000  -3785.7804    
  50045000  -3917.3539    
  50046000  -3874.1297    
  50047000  -3910.3927    
  50048000  -3982.0182    
  50049000  -3941.0421    
  50050000  -3933.1159    
  50051000  -3963.5498    
  50052000  -3915.3064    
  50053000  -3960.0466    
  50054000  -3981.8476    
  50055000  -3831.8931    
  50056000  -3939.7342    
  50057000  -4037.6698    
  50058000  -3963.6707    
  50059000  -4002.2753    
  50060000  -4017.9147    
  50061000  -3917.1658    
  50062000  -4008.4486    
  50063000  -4066.1395    
  50064000  -4017.4597    
  50065000  -4029.4448    
  50066000  -4067.8554    
  50067000  -4013.4965    
  50068000  -3946.5343    
  50069000  -3986.1332    
  50070000  -4045.6475    
  50071000  -4025.88      
  50072000  -4026.0874    
  50073000  -4119.0965    
  50074000  -4101.3866    
  50075000  -4049.2232    
  50076000  -4107.4916    
  50077000  -4109.2708    
  50078000  -4156.3483    
  50079000  -4118.2637    
  50080000  -4186.8713    
  50081000  -4140.4632    
  50082000  -4077.582     
  50083000  -4030.6175    
  50084000  -4124.7743    
  50085000  -4075.2487    
  50086000  -4083.5348    
  50087000  -4063.8272    
  50088000  -4020.3453    
  50089000  -4085.7895    
  50090000  -3949.5357    
  50091000  -4039.9282    
  50092000  -3872.1718    
  50093000  -4002.2511    
  50094000  -3928.9492    
  50095000  -3906.139     
  50096000  -4083.4785    
  50097000  -4076.3938    
  50098000  -4012.1868    
  50099000  -3928.2838    
  50100000  -3879.8568    
  50101000  -3927.5566    
  50102000  -3929.522     
  50103000  -3879.9101    
  50104000  -3919.3816    
  50105000  -3912.9469    
  50106000  -3903.34      
  50107000  -3999.3696    
  50108000  -3962.7053    
  50109000  -3995.8478    
  50110000  -3994.0186    
  50111000  -3982.2936    
  50112000  -4061.0176    
  50113000  -3929.7162    
  50114000  -3973.6752    
  50115000  -3987.2658    
  50116000  -3952.5494    
  50117000  -3976.3279    
  50118000  -3998.8807    
  50119000  -3997.2839    
  50120000  -4116.2295    
  50121000  -4077.9081    
  50122000  -4057.5534    
  50123000  -4060.0277    
  50124000  -4124.4034    
  50125000  -4117.4993    
  50126000  -4085.6217    
  50127000  -4102.8718    
  50128000  -4052.904     
  50129000  -4045.3105    
  50130000  -4076.8487    
  50131000  -3979.5676    
  50132000  -4014.6084    
  50133000  -4073.4471    
  50134000  -4042.8674    
  50135000  -3947.798     
  50136000  -3986.9172    
  50137000  -3966.3805    
  50138000  -3968.5488    
  50139000  -3940.9755    
  50140000  -4068.453     
  50141000  -3976.7716    
  50142000  -4189.1917    
  50143000  -4106.5525    
  50144000  -4095.7836    
  50145000  -4083.99      
  50146000  -4015.3611    
  50147000  -4149.8978    
  50148000  -4111.8972    
  50149000  -4020.1291    
  50150000  -4162.0979    
  50151000  -4068.7875    
  50152000  -4076.8043    
  50153000  -4064.2075    
  50154000  -4114.714     
  50155000  -4091.5689    
  50156000  -4045.6965    
  50157000  -4114.1528    
  50158000  -3981.2601    
  50159000  -4024.6245    
  50160000  -4010.9814    
  50161000  -4046.5803    
  50162000  -4096.8968    
  50163000  -4097.4287    
  50164000  -4040.5885    
  50165000  -4090.0201    
  50166000  -4143.6889    
  50167000  -4085.607     
  50168000  -3934.8405    
  50169000  -4050.3271    
  50170000  -4101.1495    
  50171000  -4008.487     
  50172000  -4071.2593    
  50173000  -4021.8341    
  50174000  -3951.7894    
  50175000  -4024.6885    
  50176000  -4088.1563    
  50177000  -4058.8689    
  50178000  -3991.7607    
  50179000  -4139.8319    
  50180000  -4100.9217    
  50181000  -4055.7652    
  50182000  -4157.2279    
  50183000  -4230.9272    
  50184000  -4028.9868    
  50185000  -3984.7103    
  50186000  -3962.2557    
  50187000  -4073.5151    
  50188000  -4053.8436    
  50189000  -3991.8699    
  50190000  -4046.8583    
  50191000  -4012.1372    
  50192000  -3987.1054    
  50193000  -4017.0042    
  50194000  -4114.9025    
  50195000  -4011.601     
  50196000  -4159.1674    
  50197000  -4073.2731    
  50198000  -4082.9516    
  50199000  -4176.7711    
  50200000  -4154.5014    
  50201000  -4116.9206    
  50202000  -4184.8973    
  50203000  -4106.4224    
  50204000  -4115.1258    
  50205000  -4067.3819    
  50206000  -4140.7796    
  50207000  -4001.5259    
  50208000  -4122.3335    
  50209000  -4037.4744    
  50210000  -4071.4609    
  50211000  -4084.7821    
  50212000  -4028.098     
  50213000  -4062.1442    
  50214000  -4095.6186    
  50215000  -4148.2712    
  50216000  -4039.738     
  50217000  -3977.1687    
  50218000  -4015.8407    
  50219000  -3976.208     
  50220000  -4086.4385    
  50221000  -4138.284     
  50222000  -4112.6288    
  50223000  -4054.9549    
  50224000  -4067.5941    
  50225000  -4097.7362    
  50226000  -4069.769     
  50227000  -3999.5485    
  50228000  -4084.2994    
  50229000  -3973.976     
  50230000  -4183.0389    
  50231000  -4036.8989    
  50232000  -4230.0334    
  50233000  -4163.9127    
  50234000  -4227.0274    
  50235000  -4057.8569    
  50236000  -4064.7036    
  50237000  -4196.7632    
  50238000  -4166.3303    
  50239000  -4221.1535    
  50240000  -4279.8516    
  50241000  -4195.2647    
  50242000  -4131.7108    
  50243000  -4089.3284    
  50244000  -4182.1581    
  50245000  -4114.8481    
  50246000  -4236.8893    
  50247000  -4160.3486    
  50248000  -4211.5782    
  50249000  -4163.5813    
  50250000  -4186.7432    
  50251000  -4118.6937    
  50252000  -4197.3602    
  50253000  -4169.014     
  50254000  -4183.3351    
  50255000  -4161.2818    
  50256000  -4132.6305    
  50257000  -4202.2442    
  50258000  -4212.2424    
  50259000  -4138.6002    
  50260000  -4150.8059    
  50261000  -4118.0063    
  50262000  -4096.6597    
  50263000  -4154.1352    
  50264000  -4193.5163    
  50265000  -4136.2524    
  50266000  -4090.9202    
  50267000  -4212.6127    
  50268000  -4127.7618    
  50269000  -4125.8651    
  50270000  -4050.0216    
  50271000  -4186.3592    
  50272000  -4248.8571    
  50273000  -4304.161     
  50274000  -4158.8981    
  50275000  -4223.1226    
  50276000  -4254.2255    
  50277000  -4212.43      
  50278000  -4173.8299    
  50279000  -4189.9464    
  50280000  -4316.3463    
  50281000  -4166.0174    
  50282000  -4144.7071    
  50283000  -4226.2265    
  50284000  -4264.5548    
  50285000  -4177.8604    
  50286000  -4227.2052    
  50287000  -4111.3481    
  50288000  -4083.2545    
  50289000  -4193.0208    
  50290000  -4189.8099    
  50291000  -4180.9296    
  50292000  -4236.683     
  50293000  -4168.7155    
  50294000  -4153.8689    
  50295000  -4248.1262    
  50296000  -4188.771     
  50297000  -4141.6608    
  50298000  -4197.2165    
  50299000  -4273.3673    
  50300000  -4340.0606    
  50301000  -4303.559     
  50302000  -4281.2446    
  50303000  -4207.0612    
  50304000  -4207.0809    
  50305000  -4140.3714    
  50306000  -4234.1576    
  50307000  -4162.6448    
  50308000  -4186.9684    
  50309000  -4266.7493    
  50310000  -4162.6516    
  50311000  -4202.1426    
  50312000  -4163.7378    
  50313000  -4179.6591    
  50314000  -4048.7932    
  50315000  -4184.0683    
  50316000  -4125.0663    
  50317000  -4167.1924    
  50318000  -4119.1152    
  50319000  -4114.7826    
  50320000  -4191.0011    
  50321000  -4144.7254    
  50322000  -4133.9693    
  50323000  -4185.6059    
  50324000  -4131.6737    
  50325000  -4179.3326    
  50326000  -4041.9316    
  50327000  -4183.0296    
  50328000  -4132.3737    
  50329000  -4120.7441    
  50330000  -4067.7127    
  50331000  -4015.7138    
  50332000  -4048.0072    
  50333000  -3912.3138    
  50334000  -3994.8491    
  50335000  -4083.0913    
  50336000  -4032.0443    
  50337000  -3991.5643    
  50338000  -4069.494     
  50339000  -4040.0539    
  50340000  -4138.0832    
  50341000  -4060.0259    
  50342000  -4060.067     
  50343000  -4007.9774    
  50344000  -3906.1104    
  50345000  -3927.7221    
  50346000  -4012.5108    
  50347000  -4017.0233    
  50348000  -3969.7973    
  50349000  -3919.1423    
  50350000  -3960.4221    
  50351000  -3998.3466    
  50352000  -4083.3506    
  50353000  -4078.9462    
  50354000  -4020.695     
  50355000  -4079.9069    
  50356000  -4148.6575    
  50357000  -4086.8009    
  50358000  -4103.4165    
  50359000  -4047.7974    
  50360000  -3973.0619    
  50361000  -4088.5901    
  50362000  -3945.7503    
  50363000  -4030.7216    
  50364000  -4028.1455    
  50365000  -4008.3292    
  50366000  -3988.1211    
  50367000  -4004.8538    
  50368000  -4036.9198    
  50369000  -4030.9737    
  50370000  -4061.1894    
  50371000  -4091.514     
  50372000  -4176.008     
  50373000  -4082.9316    
  50374000  -4172.1386    
  50375000  -4116.6753    
  50376000  -4105.5958    
  50377000  -4033.0608    
  50378000  -4081.8528    
  50379000  -4141.1711    
  50380000  -4178.1349    
  50381000  -4199.7604    
  50382000  -4210.9003    
  50383000  -4103.9299    
  50384000  -4078.003     
  50385000  -4159.0305    
  50386000  -4075.484     
  50387000  -4016.3608    
  50388000  -4169.6846    
  50389000  -4109.5208    
  50390000  -4108.6092    
  50391000  -4143.7842    
  50392000  -4106.2123    
  50393000  -4101.045     
  50394000  -4103.423     
  50395000  -4122.7883    
  50396000  -4096.4101    
  50397000  -4042.2536    
  50398000  -4145.5054    
  50399000  -4043.3273    
  50400000  -3987.969     
  50401000  -4134.4953    
  50402000  -4135.1414    
  50403000  -4212.6811    
  50404000  -4163.281     
  50405000  -4171.9408    
  50406000  -4237.7908    
  50407000  -4230.753     
  50408000  -4191.5756    
  50409000  -4230.4744    
  50410000  -4183.312     
  50411000  -4137.5738    
  50412000  -4244.0261    
  50413000  -4264.7352    
  50414000  -4248.8144    
  50415000  -4267.4132    
  50416000  -4160.0112    
  50417000  -4240.5505    
  50418000  -4161.0136    
  50419000  -4158.9653    
  50420000  -4037.9845    
  50421000  -4086.1769    
  50422000  -4049.6183    
  50423000  -4112.6298    
  50424000  -4066.2323    
  50425000  -4138.8999    
  50426000  -4101.7129    
  50427000  -4091.0433    
  50428000  -4086.9853    
  50429000  -4171.123     
  50430000  -4222.9668    
  50431000  -4293.1077    
  50432000  -4228.9701    
  50433000  -4220.996     
  50434000  -4125.2445    
  50435000  -4217.4079    
  50436000  -4184.384     
  50437000  -4324.9386    
  50438000  -4168.035     
  50439000  -4195.7755    
  50440000  -4243.2965    
  50441000  -4274.3292    
  50442000  -4284.3712    
  50443000  -4211.1179    
  50444000  -4138.8255    
  50445000  -4149.8309    
  50446000  -4189.7452    
  50447000  -4128.4584    
  50448000  -4112.4925    
  50449000  -4110.0335    
  50450000  -4203.5416    
  50451000  -4076.7734    
  50452000  -4090.7121    
  50453000  -4283.0369    
  50454000  -4151.4621    
  50455000  -4084.5599    
  50456000  -4076.6462    
  50457000  -4083.2973    
  50458000  -4106.0563    
  50459000  -4040.0904    
  50460000  -4077.37      
  50461000  -4084.5299    
  50462000  -4154.1853    
  50463000  -4203.1772    
  50464000  -4086.1226    
  50465000  -4197.0768    
  50466000  -4211.2114    
  50467000  -4217.8671    
  50468000  -4120.7193    
  50469000  -4225.4336    
  50470000  -4258.3741    
  50471000  -4241.9344    
  50472000  -4194.4492    
  50473000  -4341.3838    
  50474000  -4185.4489    
  50475000  -4212.815     
  50476000  -4243.4745    
  50477000  -4231.451     
  50478000  -4222.2451    
  50479000  -4377.8215    
  50480000  -4255.9737    
  50481000  -4118.623     
  50482000  -4143.4377    
  50483000  -4123.7034    
  50484000  -4055.0547    
  50485000  -4108.8939    
  50486000  -3990.1917    
  50487000  -4106.4623    
  50488000  -4040.8805    
  50489000  -4160.3069    
  50490000  -4055.2785    
  50491000  -4022.8241    
  50492000  -4023.9235    
  50493000  -4002.4613    
  50494000  -4048.559     
  50495000  -4031.0679    
  50496000  -4036.3332    
  50497000  -4037.2011    
  50498000  -4035.9064    
  50499000  -4069.3308    
  50500000  -4061.2499    
  50501000  -4123.7681    
  50502000  -4119.5038    
  50503000  -4085.0418    
  50504000  -3955.9249    
  50505000  -4002.6892    
  50506000  -3924.4899    
  50507000  -4016.8762    
  50508000  -4101.4865    
  50509000  -4128.1125    
  50510000  -4045.569     
  50511000  -4084.4385    
  50512000  -4066.3279    
  50513000  -4124.1379    
  50514000  -4188.5975    
  50515000  -4111.9772    
  50516000  -4059.1558    
  50517000  -4171.6707    
  50518000  -4075.4071    
  50519000  -4159.9496    
  50520000  -4214.5071    
  50521000  -4158.2644    
  50522000  -4117.5188    
  50523000  -4228.154     
  50524000  -4132.2137    
  50525000  -4114.4871    
  50526000  -4179.8456    
  50527000  -4094.3609    
  50528000  -4178.9057    
  50529000  -4170.2505    
  50530000  -4148.8478    
  50531000  -4176.1556    
  50532000  -4151.5958    
  50533000  -4153.2325    
  50534000  -4120.3701    
  50535000  -4201.5404    
  50536000  -4158.0482    
  50537000  -4078.8611    
  50538000  -4075.1017    
  50539000  -4050.8534    
  50540000  -4062.3324    
  50541000  -4017.4615    
  50542000  -4246.8048    
  50543000  -4178.2516    
  50544000  -4135.8421    
  50545000  -4166.6076    
  50546000  -4150.8764    
  50547000  -4108.3142    
  50548000  -4202.9002    
  50549000  -4206.1396    
  50550000  -4248.343     
  50551000  -4164.3836    
  50552000  -4206.2457    
  50553000  -4194.7262    
  50554000  -4109.3513    
  50555000  -4230.5554    
  50556000  -4135.9908    
  50557000  -4239.4496    
  50558000  -4281.2392    
  50559000  -4219.956     
  50560000  -4164.768     
  50561000  -4177.9062    
  50562000  -4164.6089    
  50563000  -4201.4531    
  50564000  -4225.9746    
  50565000  -4132.7473    
  50566000  -4088.0013    
  50567000  -4105.111     
  50568000  -3952.6312    
  50569000  -4130.0964    
  50570000  -4274.279     
  50571000  -4149.3204    
  50572000  -4179.3713    
  50573000  -4175.5118    
  50574000  -4221.0795    
  50575000  -4140.1047    
  50576000  -4225.9818    
  50577000  -4207.6       
  50578000  -4259.0178    
  50579000  -4143.098     
  50580000  -4210.8241    
  50581000  -4217.1684    
  50582000  -4194.2515    
  50583000  -4114.8228    
  50584000  -4186.8058    
  50585000  -4174.3791    
  50586000  -4156.2468    
  50587000  -4059.5721    
  50588000  -4214.4693    
  50589000  -4207.0836    
  50590000  -4148.482     
  50591000  -4187.0256    
  50592000  -4297.9302    
  50593000  -4302.9949    
  50594000  -4288.2967    
  50595000  -4257.6042    
  50596000  -4322.658     
  50597000  -4246.2203    
  50598000  -4212.4787    
  50599000  -4326.0621    
  50600000  -4286.8557    
  50601000  -4225.3045    
  50602000  -4228.3464    
  50603000  -4200.2177    
  50604000  -4242.3878    
  50605000  -4262.7582    
  50606000  -4169.0837    
  50607000  -4312.6575    
  50608000  -4235.9864    
  50609000  -4222.6495    
  50610000  -4150.2541    
  50611000  -4299.1416    
  50612000  -4296.7756    
  50613000  -4279.5298    
  50614000  -4243.9301    
  50615000  -4204.1693    
  50616000  -4318.271     
  50617000  -4365.808     
  50618000  -4303.3337    
  50619000  -4295.2577    
  50620000  -4234.0736    
  50621000  -4230.8455    
  50622000  -4196.0435    
  50623000  -4248.555     
  50624000  -4325.2175    
  50625000  -4347.1004    
  50626000  -4483.3661    
  50627000  -4322.932     
  50628000  -4256.7779    
  50629000  -4202.7513    
  50630000  -4162.5823    
  50631000  -4262.3367    
  50632000  -4194.5523    
  50633000  -4226.3095    
  50634000  -4175.3695    
  50635000  -4135.5153    
  50636000  -4241.4245    
  50637000  -4130.9744    
  50638000  -4152.0119    
  50639000  -4204.6232    
  50640000  -4250.5886    
  50641000  -4262.1676    
  50642000  -4197.965     
  50643000  -4281.3212    
  50644000  -4232.806     
  50645000  -4256.4062    
  50646000  -4228.9943    
  50647000  -4163.8567    
  50648000  -4180.6774    
  50649000  -4201.7314    
  50650000  -4282.1731    
  50651000  -4181.3968    
  50652000  -4298.98      
  50653000  -4286.3553    
  50654000  -4278.2055    
  50655000  -4292.4637    
  50656000  -4220.9679    
  50657000  -4318.3929    
  50658000  -4270.3076    
  50659000  -4255.1411    
  50660000  -4130.5885    
  50661000  -4166.7053    
  50662000  -4182.856     
  50663000  -4166.9667    
  50664000  -4122.7939    
  50665000  -4171.565     
  50666000  -4307.332     
  50667000  -4152.6281    
  50668000  -4178.3337    
  50669000  -4229.5302    
  50670000  -4256.2795    
  50671000  -4167.361     
  50672000  -4215.9552    
  50673000  -4168.2269    
  50674000  -4158.2209    
  50675000  -4121.8077    
  50676000  -4183.3473    
  50677000  -4130.2493    
  50678000  -4184.5595    
  50679000  -4240.5102    
  50680000  -4262.1537    
  50681000  -4277.9684    
  50682000  -4231.3374    
  50683000  -4254.1076    
  50684000  -4334.8161    
  50685000  -4229.4343    
  50686000  -4183.5758    
  50687000  -4189.0639    
  50688000  -4176.1822    
  50689000  -4195.3695    
  50690000  -4191.9918    
  50691000  -4164.5434    
  50692000  -4209.6115    
  50693000  -4159.6423    
  50694000  -4135.7426    
  50695000  -4121.6009    
  50696000  -4159.365     
  50697000  -4207.4079    
  50698000  -4224.0431    
  50699000  -4223.8155    
  50700000  -4153.9463    
  50701000  -4132.1561    
  50702000  -4169.8829    
  50703000  -4076.8736    
  50704000  -4165.1791    
  50705000  -4026.7198    
  50706000  -4077.9282    
  50707000  -4094.4741    
  50708000  -4102.3851    
  50709000  -4081.687     
  50710000  -3989.7738    
  50711000  -4140.3313    
  50712000  -4125.0203    
  50713000  -4075.4602    
  50714000  -4134.1928    
  50715000  -4053.8722    
  50716000  -4050.2069    
  50717000  -4018.8849    
  50718000  -4029.4469    
  50719000  -4008.3393    
  50720000  -4060.6546    
  50721000  -4001.2395    
  50722000  -4071.6266    
  50723000  -4131.9423    
  50724000  -4132.4717    
  50725000  -4012.1456    
  50726000  -4006.7739    
  50727000  -4025.0095    
  50728000  -4117.555     
  50729000  -3982.6189    
  50730000  -4110.8671    
  50731000  -4049.7649    
  50732000  -4073.6313    
  50733000  -4036.5987    
  50734000  -3898.7563    
  50735000  -4081.9744    
  50736000  -4127.223     
  50737000  -4088.7355    
  50738000  -3932.8975    
  50739000  -4013.4173    
  50740000  -4042.0076    
  50741000  -4019.5079    
  50742000  -4053.8901    
  50743000  -3991.7381    
  50744000  -4019.1327    
  50745000  -3961.8349    
  50746000  -3980.7739    
  50747000  -3926.3676    
  50748000  -4032.9837    
  50749000  -4021.0163    
  50750000  -4073.5307    
  50751000  -3972.5087    
  50752000  -3925.8882    
  50753000  -4083.391     
  50754000  -4058.3332    
  50755000  -4014.3327    
  50756000  -4061.5632    
  50757000  -4106.5248    
  50758000  -4047.7535    
  50759000  -4047.4471    
  50760000  -4088.3331    
  50761000  -4120.0306    
  50762000  -4033.8645    
  50763000  -4088.9928    
  50764000  -4089.9181    
  50765000  -3971.2917    
  50766000  -3954.7423    
  50767000  -4065.2399    
  50768000  -4073.1992    
  50769000  -4074.9431    
  50770000  -4062.5322    
  50771000  -4062.5828    
  50772000  -4041.2625    
  50773000  -3951.4285    
  50774000  -4142.7695    
  50775000  -4049.8137    
  50776000  -4140.5388    
  50777000  -4118.6073    
  50778000  -4183.8695    
  50779000  -4173.5193    
  50780000  -4098.445     
  50781000  -4126.642     
  50782000  -4073.167     
  50783000  -4123.2992    
  50784000  -4098.208     
  50785000  -4168.4356    
  50786000  -4161.5746    
  50787000  -4130.5971    
  50788000  -4110.6434    
  50789000  -4144.0913    
  50790000  -4087.4062    
  50791000  -4078.1784    
  50792000  -4150.9427    
  50793000  -4141.1929    
  50794000  -4121.8706    
  50795000  -4166.0167    
  50796000  -4087.7192    
  50797000  -4069.362     
  50798000  -4088.4931    
  50799000  -4117.358     
  50800000  -4109.5389    
  50801000  -4086.8905    
  50802000  -3927.0693    
  50803000  -4025.8022    
  50804000  -4018.5815    
  50805000  -4026.2368    
  50806000  -3970.9326    
  50807000  -4062.2524    
  50808000  -4033.0788    
  50809000  -4019.8471    
  50810000  -4003.4302    
  50811000  -3961.3383    
  50812000  -3997.4312    
  50813000  -4077.7077    
  50814000  -4087.0473    
  50815000  -4174.8717    
  50816000  -4121.4284    
  50817000  -4117.6749    
  50818000  -4076.0262    
  50819000  -4061.4502    
  50820000  -4230.708     
  50821000  -4118.9472    
  50822000  -4100.1339    
  50823000  -4246.171     
  50824000  -4206.9959    
  50825000  -4203.8751    
  50826000  -4280.6458    
  50827000  -4260.2463    
  50828000  -4301.6224    
  50829000  -4350.6411    
  50830000  -4186.9084    
  50831000  -4167.0108    
  50832000  -4251.0585    
  50833000  -4167.8848    
  50834000  -4200.5424    
  50835000  -4234.5582    
  50836000  -4231.3888    
  50837000  -4239.1045    
  50838000  -4344.0301    
  50839000  -4230.2235    
  50840000  -4176.5259    
  50841000  -4156.3366    
  50842000  -4158.6568    
  50843000  -4088.4625    
  50844000  -4197.9518    
  50845000  -4125.7329    
  50846000  -4218.9871    
  50847000  -4101.7508    
  50848000  -4097.981     
  50849000  -4057.1076    
  50850000  -4148.186     
  50851000  -4019.3114    
  50852000  -4054.5342    
  50853000  -4029.5385    
  50854000  -4097.6814    
  50855000  -4034.3869    
  50856000  -4006.7179    
  50857000  -4076.5106    
  50858000  -4078.8994    
  50859000  -4126.147     
  50860000  -4003.3296    
  50861000  -4000.0048    
  50862000  -4039.7961    
  50863000  -3996.1457    
  50864000  -4058.8747    
  50865000  -4050.3623    
  50866000  -4012.1465    
  50867000  -4000.0606    
  50868000  -4064.5506    
  50869000  -4054.1273    
  50870000  -4027.1539    
  50871000  -4113.8409    
  50872000  -4095.974     
  50873000  -4048.8294    
  50874000  -4096.6573    
  50875000  -4084.0841    
  50876000  -4016.7595    
  50877000  -4003.7159    
  50878000  -4050.382     
  50879000  -4037.7269    
  50880000  -4098.6137    
  50881000  -3990.5083    
  50882000  -4012.1814    
  50883000  -3928.9507    
  50884000  -3995.4499    
  50885000  -3903.462     
  50886000  -3874.7577    
  50887000  -3968.9144    
  50888000  -3966.7154    
  50889000  -3938.4245    
  50890000  -3954.1151    
  50891000  -4105.6997    
  50892000  -3985.2878    
  50893000  -3983.995     
  50894000  -4003.7149    
  50895000  -4051.6594    
  50896000  -4052.1138    
  50897000  -4046.2977    
  50898000  -4074.8214    
  50899000  -4109.1132    
  50900000  -4153.9455    
  50901000  -4146.8415    
  50902000  -4049.8001    
  50903000  -4108.041     
  50904000  -4242.4528    
  50905000  -4167.4547    
  50906000  -4164.2195    
  50907000  -4024.3723    
  50908000  -4156.8395    
  50909000  -4065.3655    
  50910000  -3985.1578    
  50911000  -4013.0006    
  50912000  -4030.0569    
  50913000  -4054.1324    
  50914000  -4094.331     
  50915000  -4059.8446    
  50916000  -4076.4182    
  50917000  -4079.3247    
  50918000  -4109.5877    
  50919000  -4097.9486    
  50920000  -4147.3199    
  50921000  -4133.0045    
  50922000  -4172.4312    
  50923000  -4073.2339    
  50924000  -4171.4706    
  50925000  -4241.9816    
  50926000  -4240.4299    
  50927000  -4083.1341    
  50928000  -4164.4987    
  50929000  -4072.4557    
  50930000  -4171.4409    
  50931000  -4177.961     
  50932000  -4254.7058    
  50933000  -4256.666     
  50934000  -4155.8097    
  50935000  -4146.1347    
  50936000  -4120.468     
  50937000  -4105.3977    
  50938000  -4174.8845    
  50939000  -4134.209     
  50940000  -3999.9538    
  50941000  -3999.8282    
  50942000  -3991.4594    
  50943000  -4090.3383    
  50944000  -4093.6665    
  50945000  -4149.569     
  50946000  -4159.0125    
  50947000  -4112.0461    
  50948000  -4102.0349    
  50949000  -4134.2931    
  50950000  -4176.351     
  50951000  -4158.4869    
  50952000  -4246.4376    
  50953000  -4183.7162    
  50954000  -4072.279     
  50955000  -4233.3602    
  50956000  -4205.602     
  50957000  -4106.9434    
  50958000  -4247.9365    
  50959000  -4195.7403    
  50960000  -4208.3955    
  50961000  -4234.4671    
  50962000  -4251.7459    
  50963000  -4097.6895    
  50964000  -4203.4177    
  50965000  -4203.6532    
  50966000  -4208.9491    
  50967000  -4256.7408    
  50968000  -4236.9957    
  50969000  -4141.3452    
  50970000  -4184.545     
  50971000  -4221.4932    
  50972000  -4185.8252    
  50973000  -4182.9703    
  50974000  -4235.3984    
  50975000  -4300.9456    
  50976000  -4275.6482    
  50977000  -4202.9084    
  50978000  -4108.4873    
  50979000  -4179.5286    
  50980000  -4121.8937    
  50981000  -4021.4939    
  50982000  -3958.1805    
  50983000  -4061.8239    
  50984000  -4110.5599    
  50985000  -4137.3475    
  50986000  -4077.6888    
  50987000  -4045.6981    
  50988000  -4024.9089    
  50989000  -4048.1768    
  50990000  -4115.4056    
  50991000  -4045.9916    
  50992000  -4062.5235    
  50993000  -4067.9955    
  50994000  -4032.3354    
  50995000  -4068.4665    
  50996000  -4116.1706    
  50997000  -4130.8256    
  50998000  -3994.2431    
  50999000  -4088.889     
  51000000  -4076.916     
  51001000  -3967.8346    
  51002000  -4064.9109    
  51003000  -4130.2779    
  51004000  -4012.3094    
  51005000  -4068.3678    
  51006000  -4073.9852    
  51007000  -4064.3701    
  51008000  -4017.7662    
  51009000  -4119.8192    
  51010000  -4094.3382    
  51011000  -4037.8082    
  51012000  -4007.8111    
  51013000  -4052.69      
  51014000  -4100.3619    
  51015000  -4004.2233    
  51016000  -4001.6887    
  51017000  -3988.0062    
  51018000  -3948.6093    
  51019000  -3967.7636    
  51020000  -3985.5133    
  51021000  -3926.9851    
  51022000  -3865.6089    
  51023000  -3912.5164    
  51024000  -3958.1733    
  51025000  -4073.7275    
  51026000  -4032.5871    
  51027000  -4053.1301    
  51028000  -4113.1905    
  51029000  -3963.0469    
  51030000  -4023.8909    
  51031000  -4073.059     
  51032000  -4014.1489    
  51033000  -4018.7401    
  51034000  -4147.4554    
  51035000  -4206.6597    
  51036000  -4121.868     
  51037000  -4103.1285    
  51038000  -4092.1188    
  51039000  -4074.359     
  51040000  -3964.3971    
  51041000  -4019.3414    
  51042000  -4084.5978    
  51043000  -3989.4423    
  51044000  -4043.0049    
  51045000  -4046.4675    
  51046000  -4147.2054    
  51047000  -4095.7533    
  51048000  -4037.4705    
  51049000  -4013.1568    
  51050000  -3989.7569    
  51051000  -4100.2801    
  51052000  -4171.1526    
  51053000  -4118.2678    
  51054000  -4169.8296    
  51055000  -4045.5917    
  51056000  -4184.889     
  51057000  -4056.8302    
  51058000  -4150.5869    
  51059000  -4119.0014    
  51060000  -4080.0063    
  51061000  -4042.4953    
  51062000  -4147.3125    
  51063000  -4075.4995    
  51064000  -3969.6315    
  51065000  -3938.6506    
  51066000  -3984.7046    
  51067000  -3968.3185    
  51068000  -3990.4509    
  51069000  -4055.9838    
  51070000  -3883.6695    
  51071000  -4010.548     
  51072000  -3956.106     
  51073000  -3879.3234    
  51074000  -4043.152     
  51075000  -3919.9763    
  51076000  -3942.8054    
  51077000  -3919.1771    
  51078000  -3966.061     
  51079000  -3971.1774    
  51080000  -3947.4342    
  51081000  -3952.0786    
  51082000  -4045.6755    
  51083000  -4034.3582    
  51084000  -4002.3666    
  51085000  -4071.2459    
  51086000  -4040.8045    
  51087000  -4004.3585    
  51088000  -4068.765     
  51089000  -4163.8027    
  51090000  -4020.9343    
  51091000  -4039.4794    
  51092000  -4009.5174    
  51093000  -4096.3125    
  51094000  -4146.5008    
  51095000  -4227.4335    
  51096000  -4102.6141    
  51097000  -4165.5746    
  51098000  -4120.5206    
  51099000  -4205.0049    
  51100000  -4069.6179    
  51101000  -4201.7391    
  51102000  -4094.744     
  51103000  -4095.027     
  51104000  -4058.3436    
  51105000  -4131.7885    
  51106000  -4111.1908    
  51107000  -4136.191     
  51108000  -4179.1544    
  51109000  -4248.9445    
  51110000  -4225.9491    
  51111000  -4184.1865    
  51112000  -4372.0228    
  51113000  -4330.7955    
  51114000  -4263.3739    
  51115000  -4179.2733    
  51116000  -4209.7701    
  51117000  -4218.3551    
  51118000  -4202.1682    
  51119000  -4191.5533    
  51120000  -4166.5819    
  51121000  -4177.2912    
  51122000  -4219.0886    
  51123000  -4160.0301    
  51124000  -4207.759     
  51125000  -4113.8144    
  51126000  -4230.3571    
  51127000  -4172.6282    
  51128000  -4199.0068    
  51129000  -4236.1639    
  51130000  -4211.6949    
  51131000  -4180.3181    
  51132000  -4181.2939    
  51133000  -4252.9534    
  51134000  -4212.5161    
  51135000  -4215.5529    
  51136000  -4253.4731    
  51137000  -4254.3211    
  51138000  -4237.4592    
  51139000  -4363.7506    
  51140000  -4309.7145    
  51141000  -4255.3468    
  51142000  -4278.8514    
  51143000  -4275.7267    
  51144000  -4273.7081    
  51145000  -4265.1426    
  51146000  -4225.5589    
  51147000  -4323.4369    
  51148000  -4227.0484    
  51149000  -4232.7468    
  51150000  -4172.9095    
  51151000  -4274.6788    
  51152000  -4250.533     
  51153000  -4191.6659    
  51154000  -4142.0608    
  51155000  -4144.8699    
  51156000  -4149.9549    
  51157000  -4150.2772    
  51158000  -4201.9531    
  51159000  -4251.7988    
  51160000  -4268.2856    
  51161000  -4156.7478    
  51162000  -4179.7283    
  51163000  -4101.4062    
  51164000  -4218.9079    
  51165000  -4136.5255    
  51166000  -4162.8331    
  51167000  -4269.6813    
  51168000  -4258.9495    
  51169000  -4232.214     
  51170000  -4255.9622    
  51171000  -4262.1414    
  51172000  -4276.2217    
  51173000  -4211.5117    
  51174000  -4261.3302    
  51175000  -4234.2103    
  51176000  -4215.5319    
  51177000  -4214.1569    
  51178000  -4260.3       
  51179000  -4241.163     
  51180000  -4286.0339    
  51181000  -4204.1586    
  51182000  -4272.8996    
  51183000  -4241.4788    
  51184000  -4112.7412    
  51185000  -4201.9294    
  51186000  -4240.6496    
  51187000  -4226.0086    
  51188000  -4137.3015    
  51189000  -4080.3046    
  51190000  -4054.005     
  51191000  -4156.6736    
  51192000  -4117.2022    
  51193000  -4026.6765    
  51194000  -4019.9578    
  51195000  -4177.1341    
  51196000  -4153.2813    
  51197000  -4135.3945    
  51198000  -4110.7791    
  51199000  -4039.9935    
  51200000  -4045.3043    
  51201000  -4109.5382    
  51202000  -4092.4031    
  51203000  -4160.1935    
  51204000  -4136.4497    
  51205000  -4170.4746    
  51206000  -4223.3406    
  51207000  -4040.01      
  51208000  -4142.2511    
  51209000  -4175.2546    
  51210000  -4159.1652    
  51211000  -4153.2126    
  51212000  -4074.7226    
  51213000  -4126.0735    
  51214000  -4026.5287    
  51215000  -4098.117     
  51216000  -4085.4902    
  51217000  -4117.5049    
  51218000  -4066.5953    
  51219000  -4094.8117    
  51220000  -4101.1265    
  51221000  -4132.1485    
  51222000  -4068.8838    
  51223000  -4094.2971    
  51224000  -4161.4844    
  51225000  -4138.5788    
  51226000  -4091.2406    
  51227000  -4106.2982    
  51228000  -4125.8423    
  51229000  -4029.4294    
  51230000  -4024.1485    
  51231000  -4036.7314    
  51232000  -4097.7375    
  51233000  -4068.6039    
  51234000  -4059.3816    
  51235000  -3985.6396    
  51236000  -4076.2634    
  51237000  -3964.7223    
  51238000  -4023.4279    
  51239000  -4019.1642    
  51240000  -3924.0081    
  51241000  -3931.7049    
  51242000  -4104.4265    
  51243000  -4086.4598    
  51244000  -4089.9743    
  51245000  -4085.2517    
  51246000  -4127.4663    
  51247000  -3997.8534    
  51248000  -4062.1647    
  51249000  -4097.7156    
  51250000  -4125.3109    
  51251000  -4022.1959    
  51252000  -4045.5183    
  51253000  -4042.1978    
  51254000  -4169.4128    
  51255000  -4125.5635    
  51256000  -4109.9809    
  51257000  -4069.4238    
  51258000  -4075.0006    
  51259000  -4179.9072    
  51260000  -4191.4832    
  51261000  -4111.1216    
  51262000  -4081.1704    
  51263000  -4090.9795    
  51264000  -4083.3273    
  51265000  -4162.5958    
  51266000  -4139.5281    
  51267000  -4197.1542    
  51268000  -4072.5915    
  51269000  -4080.9086    
  51270000  -4142.402     
  51271000  -4104.3855    
  51272000  -4091.8882    
  51273000  -4133.7113    
  51274000  -4063.7726    
  51275000  -4123.7209    
  51276000  -4245.0365    
  51277000  -4241.3525    
  51278000  -4240.1586    
  51279000  -4221.9385    
  51280000  -4134.5393    
  51281000  -4237.9307    
  51282000  -4227.3454    
  51283000  -4325.6576    
  51284000  -4274.0966    
  51285000  -4315.578     
  51286000  -4237.6644    
  51287000  -4229.5675    
  51288000  -4280.591     
  51289000  -4224.6021    
  51290000  -4206.3933    
  51291000  -4148.3207    
  51292000  -4230.0484    
  51293000  -4214.9166    
  51294000  -4209.7198    
  51295000  -4183.8487    
  51296000  -4203.737     
  51297000  -4158.7458    
  51298000  -4183.8974    
  51299000  -4196.9967    
  51300000  -4130.8457    
  51301000  -4138.0283    
  51302000  -4180.0318    
  51303000  -4152.1324    
  51304000  -4117.324     
  51305000  -4215.1287    
  51306000  -4166.6102    
  51307000  -4223.3907    
  51308000  -4091.2603    
  51309000  -4085.3511    
  51310000  -4193.8501    
  51311000  -4169.9072    
  51312000  -4162.0501    
  51313000  -4313.6595    
  51314000  -4246.0801    
  51315000  -4219.6662    
  51316000  -4097.275     
  51317000  -4138.1727    
  51318000  -4154.5353    
  51319000  -4320.9361    
  51320000  -4146.414     
  51321000  -4252.7457    
  51322000  -4090.5748    
  51323000  -4168.7279    
  51324000  -4133.6734    
  51325000  -4075.0217    
  51326000  -4088.4151    
  51327000  -4156.889     
  51328000  -4033.608     
  51329000  -4114.8318    
  51330000  -4122.6148    
  51331000  -4181.9094    
  51332000  -4101.5347    
  51333000  -4148.286     
  51334000  -4192.6015    
  51335000  -4187.3719    
  51336000  -4245.348     
  51337000  -4208.1009    
  51338000  -4265.2242    
  51339000  -4245.6469    
  51340000  -4229.3994    
  51341000  -4206.9701    
  51342000  -4273.4481    
  51343000  -4261.2788    
  51344000  -4182.3011    
  51345000  -4098.2067    
  51346000  -4232.1983    
  51347000  -4197.5085    
  51348000  -4258.0048    
  51349000  -4249.1978    
  51350000  -4151.685     
  51351000  -4208.3156    
  51352000  -4153.5142    
  51353000  -4195.6717    
  51354000  -4200.8087    
  51355000  -4184.2442    
  51356000  -4191.3518    
  51357000  -4115.127     
  51358000  -4288.2694    
  51359000  -4217.0883    
  51360000  -4232.7331    
  51361000  -4200.4694    
  51362000  -4187.6124    
  51363000  -4190.0108    
  51364000  -4182.0155    
  51365000  -4263.7336    
  51366000  -4273.6554    
  51367000  -4226.64      
  51368000  -4253.3362    
  51369000  -4281.6658    
  51370000  -4241.4447    
  51371000  -4224.1234    
  51372000  -4106.0221    
  51373000  -4206.8763    
  51374000  -4210.1081    
  51375000  -4193.0596    
  51376000  -4262.4056    
  51377000  -4318.9258    
  51378000  -4260.3469    
  51379000  -4344.4859    
  51380000  -4290.4913    
  51381000  -4277.0117    
  51382000  -4264.7659    
  51383000  -4307.017     
  51384000  -4206.6599    
  51385000  -4285.094     
  51386000  -4220.0654    
  51387000  -4219.4676    
  51388000  -4249.5718    
  51389000  -4234.2522    
  51390000  -4209.9322    
  51391000  -4228.103     
  51392000  -4288.7008    
  51393000  -4153.2664    
  51394000  -4190.8106    
  51395000  -4230.7357    
  51396000  -4251.7692    
  51397000  -4287.6988    
  51398000  -4319.3486    
  51399000  -4126.3052    
  51400000  -4222.7824    
  51401000  -4310.0586    
  51402000  -4289.5353    
  51403000  -4227.9165    
  51404000  -4188.5424    
  51405000  -4371.0797    
  51406000  -4276.9328    
  51407000  -4243.4707    
  51408000  -4245.5697    
  51409000  -4395.1176    
  51410000  -4243.6599    
  51411000  -4351.4585    
  51412000  -4263.4166    
  51413000  -4311.6596    
  51414000  -4270.386     
  51415000  -4295.4132    
  51416000  -4328.1857    
  51417000  -4303.3304    
  51418000  -4277.7054    
  51419000  -4304.3706    
  51420000  -4255.449     
  51421000  -4287.6182    
  51422000  -4262.7909    
  51423000  -4197.7077    
  51424000  -4318.6784    
  51425000  -4228.0646    
  51426000  -4240.2766    
  51427000  -4214.2619    
  51428000  -4184.6236    
  51429000  -4138.4115    
  51430000  -4266.421     
  51431000  -4139.1199    
  51432000  -4183.4001    
  51433000  -4155.0323    
  51434000  -4220.3619    
  51435000  -4133.2643    
  51436000  -4238.4907    
  51437000  -4139.3264    
  51438000  -4177.3154    
  51439000  -4128.1097    
  51440000  -4224.7478    
  51441000  -4201.1068    
  51442000  -4160.2582    
  51443000  -4118.1289    
  51444000  -4093.1881    
  51445000  -4171.096     
  51446000  -4222.8767    
  51447000  -4141.033     
  51448000  -4272.974     
  51449000  -4309.8102    
  51450000  -4190.436     
  51451000  -4265.227     
  51452000  -4295.2139    
  51453000  -4139.4498    
  51454000  -4197.0578    
  51455000  -4155.5921    
  51456000  -4137.5431    
  51457000  -4241.132     
  51458000  -4291.5764    
  51459000  -4316.4152    
  51460000  -4328.2218    
  51461000  -4205.5399    
  51462000  -4270.7477    
  51463000  -4295.3136    
  51464000  -4303.501     
