
units  real
dimension 3
boundary p p p
atom_style full

# Use your latest restart file here
read_restart restart_cag40_cont1.42000000
Reading restart file ...
  restart file = 22 Jul 2025, LAMMPS = 22 Jul 2025
WARNING: Restart file used different # of processors: 80 vs. 64 (src/read_restart.cpp:629)
  restoring atom style full from restart
  orthogonal box = (0 0 0) to (809 809 809)
  4 by 4 by 4 MPI processor grid
  restoring pair style hybrid/overlay from restart
  restoring bond style harmonic from restart
  restoring angle style harmonic from restart
  7680 atoms
  7616 bonds
  7552 angles
Finding 1-2 1-3 1-4 neighbors ...
  special bond factors lj:    0        0        1       
  special bond factors coul:  0        0        0       
     2 = max # of 1-2 neighbors
     2 = max # of 1-3 neighbors
     4 = max # of 1-4 neighbors
     6 = max # of special neighbors
  special bonds CPU = 0.310 seconds
  read_restart CPU = 0.380 seconds

reset_timestep 42000000
restart 1000000 restart_CAG40_cont2

###########################
# Recreate force field
###########################

bond_style harmonic
bond_coeff 1 7.5 5.9

angle_style harmonic
angle_coeff 1 5.0 150.0

pair_style hybrid/overlay lj/cut 10.0 base/rna 18.0
pair_coeff * * lj/cut 2.0 8.9089871814
pair_modify pair lj/cut shift yes

pair_coeff 1 1 base/rna 0.00000 3.0 13.8 1.5 0.5 1.8326 0.9425 1.8326 1.1345 #AA
pair_coeff 1 2 base/rna 0.00000 3.0 13.8 1.5 0.5 1.8326 0.9425 1.8326 1.1345 #AC
pair_coeff 1 3 base/rna 0.00000 3.0 13.8 1.5 0.5 1.8326 0.9425 1.8326 1.1345 #AG
pair_coeff 1 4 base/rna 3.33333 3.0 13.8 1.5 0.5 1.8326 0.9425 1.8326 1.1345 #AU
pair_coeff 2 2 base/rna 0.00000 3.0 13.8 1.5 0.5 1.8326 0.9425 1.8326 1.1345 #CC
pair_coeff 2 3 base/rna 5.00000 3.0 13.8 1.5 0.5 1.8326 0.9425 1.8326 1.1345 #CG
pair_coeff 2 4 base/rna 0.00000 3.0 13.8 1.5 0.5 1.8326 0.9425 1.8326 1.1345 #CU
pair_coeff 3 3 base/rna 0.00000 3.0 13.8 1.5 0.5 1.8326 0.9425 1.8326 1.1345 #GG
pair_coeff 3 4 base/rna 3.33333 3.0 13.8 1.5 0.5 1.8326 0.9425 1.8326 1.1345 #GU
pair_coeff 4 4 base/rna 0.00000 3.0 13.8 1.5 0.5 1.8326 0.9425 1.8326 1.1345 #UU

special_bonds lj 0.0 0.0 1.0

neighbor  25.0 bin
comm_style      tiled
timestep        10
neigh_modify    every 10 delay 0

###########################
# Integrator, thermostat, output
###########################

variable temperature9 equal 293
variable randomSeed equal 13652

fix             fxnve   all nve
fix             fxlange all langevin ${temperature9} ${temperature9} 100000.0 ${randomSeed}
fix             fxlange all langevin 293 ${temperature9} 100000.0 ${randomSeed}
fix             fxlange all langevin 293 293 100000.0 ${randomSeed}
fix             fxlange all langevin 293 293 100000.0 13652

# Thermo output (same as main run)
thermo          1000
thermo_style    custom step pe
thermo_modify   flush yes

dump            1 all custom 10000 40CAG_continue2.lammpstrj id mol type xu yu zu
dump_modify     1 sort id

run             100000000
Generated 0 of 6 mixed pair_coeff terms from geometric mixing rule
Neighbor list info ...
  update: every = 10 steps, delay = 0 steps, check = yes
  max neighbors/atom: 2000, page size: 100000
  master list distance cutoff = 43
  ghost atom cutoff = 43
  binsize = 21.5, bins = 38 38 38
  2 neighbor lists, perpetual/occasional/extra = 2 0 0
  (1) pair lj/cut, perpetual
      attributes: half, newton on
      pair build: half/bin/newton
      stencil: half/bin/3d
      bin: standard
  (2) pair base/rna, perpetual
      attributes: half, newton on, cut 43
      pair build: half/bin/newton
      stencil: half/bin/3d
      bin: standard
Per MPI rank memory allocation (min/avg/max) = 7.225 | 7.376 | 7.65 Mbytes
   Step         PotEng    
  42000000  -4161.3646    
  42001000  -4242.955     
  42002000  -4207.3263    
  42003000  -4191.5194    
  42004000  -4219.5918    
  42005000  -4220.9337    
  42006000  -4204.6315    
  42007000  -4179.2584    
  42008000  -4122.1204    
  42009000  -4163.0183    
  42010000  -4154.4629    
  42011000  -4165.7011    
  42012000  -4170.7164    
  42013000  -4155.1242    
  42014000  -4179.567     
  42015000  -4144.724     
  42016000  -4317.36      
  42017000  -4217.6143    
  42018000  -4236.8986    
  42019000  -4229.8226    
  42020000  -4228.2921    
  42021000  -4283.8464    
  42022000  -4274.6954    
  42023000  -4254.845     
  42024000  -4288.2662    
  42025000  -4233.8897    
  42026000  -4349.3269    
  42027000  -4300.2756    
  42028000  -4225.0105    
  42029000  -4212.3621    
  42030000  -4327.0837    
  42031000  -4275.1309    
  42032000  -4267.9863    
  42033000  -4239.9237    
  42034000  -4305.8435    
  42035000  -4269.5377    
  42036000  -4168.9902    
  42037000  -4298.0328    
  42038000  -4143.781     
  42039000  -4214.9929    
  42040000  -4178.9155    
  42041000  -4139.3526    
  42042000  -4144.7538    
  42043000  -4156.524     
  42044000  -4223.2019    
  42045000  -4168.5124    
  42046000  -4141.9512    
  42047000  -4151.6115    
  42048000  -4147.3068    
  42049000  -4155.2141    
  42050000  -4116.6219    
  42051000  -4146.6353    
  42052000  -4064.3959    
  42053000  -4123.2156    
  42054000  -4036.9409    
  42055000  -4132.5815    
  42056000  -4112.7761    
  42057000  -4053.3538    
  42058000  -4070.6423    
  42059000  -3998.204     
  42060000  -4008.636     
  42061000  -3992.3847    
  42062000  -4135.9929    
  42063000  -4090.5765    
  42064000  -4097.3618    
  42065000  -4040.913     
  42066000  -4012.3558    
  42067000  -4064.648     
  42068000  -4000.1673    
  42069000  -3991.7637    
  42070000  -3997.9592    
  42071000  -4060.5788    
  42072000  -4097.9343    
  42073000  -4144.8067    
  42074000  -4076.6196    
  42075000  -4038.5956    
  42076000  -4021.8639    
  42077000  -4106.2409    
  42078000  -4123.631     
  42079000  -4090.4952    
  42080000  -4140.9346    
  42081000  -4023.6304    
  42082000  -4002.0833    
  42083000  -4003.4251    
  42084000  -3995.5096    
  42085000  -4030.1195    
  42086000  -4065.7459    
  42087000  -4092.5986    
  42088000  -4009.6793    
  42089000  -4065.9401    
  42090000  -4064.8585    
  42091000  -4053.335     
  42092000  -4097.6045    
  42093000  -4082.4394    
  42094000  -4149.8796    
  42095000  -4023.8705    
  42096000  -4023.37      
  42097000  -4070.0538    
  42098000  -4059.7861    
  42099000  -4060.3527    
  42100000  -4104.4353    
  42101000  -4042.5042    
  42102000  -4041.5803    
  42103000  -4098.4034    
  42104000  -3967.426     
  42105000  -3994.017     
  42106000  -4077.834     
  42107000  -3937.0995    
  42108000  -4003.1095    
  42109000  -4087.3585    
  42110000  -4134.2903    
  42111000  -3997.664     
  42112000  -4068.3866    
  42113000  -4053.9008    
  42114000  -4085.7245    
  42115000  -3996.2455    
  42116000  -4077.7411    
  42117000  -3978.8793    
  42118000  -4061.1814    
  42119000  -4004.4528    
  42120000  -4074.7257    
  42121000  -3993.4893    
  42122000  -4062.6648    
  42123000  -4076.5409    
  42124000  -3965.448     
  42125000  -4074.8661    
  42126000  -4067.089     
  42127000  -4001.0448    
  42128000  -4006.4097    
  42129000  -3964.6875    
  42130000  -4077.8531    
  42131000  -4061.1076    
  42132000  -4081.1524    
  42133000  -3986.2885    
  42134000  -3966.8172    
  42135000  -3990.667     
  42136000  -4003.2036    
  42137000  -4081.0939    
  42138000  -3994.6765    
  42139000  -4124.8392    
  42140000  -4020.7141    
  42141000  -3993.2557    
  42142000  -3995.589     
  42143000  -3866.6268    
  42144000  -3983.3971    
  42145000  -4051.0011    
  42146000  -3975.6417    
  42147000  -4080.7013    
  42148000  -4030.2699    
  42149000  -4044.0811    
  42150000  -4047.5921    
  42151000  -4104.827     
  42152000  -4035.213     
  42153000  -4142.231     
  42154000  -4088.4474    
  42155000  -4043.1695    
  42156000  -4078.0904    
  42157000  -4096.0581    
  42158000  -4146.9909    
  42159000  -4006.2465    
  42160000  -4087.4703    
  42161000  -4071.2832    
  42162000  -4002.9643    
  42163000  -3942.4447    
  42164000  -3980.0989    
  42165000  -4070.6068    
  42166000  -3935.1369    
  42167000  -3898.7315    
  42168000  -3934.3447    
  42169000  -3905.1826    
  42170000  -3861.5884    
  42171000  -3895.9642    
  42172000  -3835.4343    
  42173000  -3946.7742    
  42174000  -3935.9105    
  42175000  -3924.5497    
  42176000  -4023.9794    
  42177000  -4048.1452    
  42178000  -3974.0546    
  42179000  -3990.0537    
  42180000  -4010.4707    
  42181000  -4019.0537    
  42182000  -4033.7419    
  42183000  -3968.7431    
  42184000  -3930.1637    
  42185000  -3944.7741    
  42186000  -3988.2581    
  42187000  -3992.5227    
  42188000  -4004.5824    
  42189000  -3984.932     
  42190000  -4009.3476    
  42191000  -3973.4872    
  42192000  -4016.4426    
  42193000  -3948.0514    
  42194000  -3935.9874    
  42195000  -4021.8387    
  42196000  -4044.9612    
  42197000  -3985.0274    
  42198000  -3922.6904    
  42199000  -3948.7059    
  42200000  -4005.4105    
  42201000  -4033.5597    
  42202000  -4103.2173    
  42203000  -4149.5809    
  42204000  -4056.1479    
  42205000  -4161.8435    
  42206000  -4105.1864    
  42207000  -4060.3141    
  42208000  -4008.1673    
  42209000  -3970.8573    
  42210000  -4056.5323    
  42211000  -4130.2466    
  42212000  -4179.6252    
  42213000  -4132.057     
  42214000  -3920.2124    
  42215000  -4026.5516    
  42216000  -3981.9442    
  42217000  -4021.0459    
  42218000  -4087.3976    
  42219000  -3952.0641    
  42220000  -4056.2836    
  42221000  -4091.312     
  42222000  -4042.1282    
  42223000  -4037.613     
  42224000  -3905.7123    
  42225000  -4020.0493    
  42226000  -3995.3894    
  42227000  -3976.4268    
  42228000  -4046.4452    
  42229000  -4007.3631    
  42230000  -3943.5508    
  42231000  -4066.4198    
  42232000  -3999.6176    
  42233000  -4071.0242    
  42234000  -4076.0669    
  42235000  -3909.1986    
  42236000  -3924.7936    
  42237000  -3998.1831    
  42238000  -3964.6397    
  42239000  -4013.0094    
  42240000  -3951.6152    
  42241000  -3980.5963    
  42242000  -3989.7169    
  42243000  -4053.6227    
  42244000  -3987.2025    
  42245000  -4031.0758    
  42246000  -4102.5169    
  42247000  -3995.6131    
  42248000  -4089.6884    
  42249000  -4121.894     
  42250000  -4125.7614    
  42251000  -4117.4771    
  42252000  -4095.9017    
  42253000  -4035.6294    
  42254000  -4074.8266    
  42255000  -4086.8826    
  42256000  -4120.849     
  42257000  -4159.2171    
  42258000  -4087.0896    
  42259000  -4163.029     
  42260000  -4087.8649    
  42261000  -4004.9013    
  42262000  -3984.6586    
  42263000  -4037.3094    
  42264000  -3989.7518    
  42265000  -3996.7497    
  42266000  -3963.4043    
  42267000  -4072.6264    
  42268000  -4024.9483    
  42269000  -4118.3566    
  42270000  -4039.4634    
  42271000  -4080.9485    
  42272000  -4074.6434    
  42273000  -4123.1342    
  42274000  -4172.1581    
  42275000  -4158.1783    
  42276000  -4170.9468    
  42277000  -4139.2886    
  42278000  -4176.2754    
  42279000  -4271.2852    
  42280000  -4173.6198    
  42281000  -4230.4996    
  42282000  -4251.2105    
  42283000  -4155.0346    
  42284000  -4144.3552    
  42285000  -4235.513     
  42286000  -4110.4338    
  42287000  -4063.7205    
  42288000  -4143.37      
  42289000  -4200.3769    
  42290000  -4158.6754    
  42291000  -4252.752     
  42292000  -4201.963     
  42293000  -4173.1694    
  42294000  -4252.252     
  42295000  -4117.1027    
  42296000  -4261.4872    
  42297000  -4207.5522    
  42298000  -4302.6277    
  42299000  -4213.9821    
  42300000  -4174.1149    
  42301000  -4176.9866    
  42302000  -4244.5556    
  42303000  -4139.4341    
  42304000  -4106.6464    
  42305000  -4099.575     
  42306000  -4144.6393    
  42307000  -4022.2027    
  42308000  -4133.7603    
  42309000  -4125.965     
  42310000  -4080.2459    
  42311000  -4061.3328    
  42312000  -4089.3395    
  42313000  -4104.9339    
  42314000  -4079.5804    
  42315000  -4095.1402    
  42316000  -4136.8151    
  42317000  -4065.0374    
  42318000  -4112.7422    
  42319000  -4133.092     
  42320000  -4157.5509    
  42321000  -4119.689     
  42322000  -4111.2876    
  42323000  -4093.9389    
  42324000  -4136.4765    
  42325000  -4052.246     
  42326000  -4179.546     
  42327000  -4197.6309    
  42328000  -4204.2419    
  42329000  -4123.5974    
  42330000  -4210.0727    
  42331000  -4131.4557    
  42332000  -4107.1545    
  42333000  -4087.7196    
  42334000  -4058.9786    
  42335000  -4117.7865    
  42336000  -4093.0041    
  42337000  -4100.2034    
  42338000  -4125.044     
  42339000  -4120.5916    
  42340000  -4115.2995    
  42341000  -4123.5841    
  42342000  -4178.2636    
  42343000  -4251.694     
  42344000  -4236.7698    
  42345000  -4195.397     
  42346000  -4228.6285    
  42347000  -4238.5785    
  42348000  -4225.2543    
  42349000  -4210.3667    
  42350000  -4225.5031    
  42351000  -4306.2139    
  42352000  -4352.0944    
  42353000  -4176.5727    
  42354000  -4101.4974    
  42355000  -4109.6401    
  42356000  -4117.1501    
  42357000  -4117.9339    
  42358000  -4146.7812    
  42359000  -4109.2829    
  42360000  -4277.5122    
  42361000  -4174.9848    
  42362000  -4145.1356    
  42363000  -4154.2971    
  42364000  -4045.9228    
  42365000  -4024.1103    
  42366000  -3978.0954    
  42367000  -4021.6026    
  42368000  -4033.3982    
  42369000  -4124.8127    
  42370000  -4014.9439    
  42371000  -4053.5088    
  42372000  -4119.3344    
  42373000  -4080.1465    
  42374000  -4050.2148    
  42375000  -4174.1543    
  42376000  -4268.7685    
  42377000  -4212.024     
  42378000  -4269.984     
  42379000  -4097.0084    
  42380000  -4144.6021    
  42381000  -4207.8016    
  42382000  -4104.7288    
  42383000  -4169.1589    
  42384000  -4163.6863    
  42385000  -4156.2562    
  42386000  -4099.8134    
  42387000  -4099.3073    
  42388000  -4168.7987    
  42389000  -4054.9594    
  42390000  -4087.5609    
  42391000  -4102.9285    
  42392000  -4200.2797    
  42393000  -4110.825     
  42394000  -4125.308     
  42395000  -4150.0739    
  42396000  -3948.2205    
  42397000  -4123.5987    
  42398000  -4083.6337    
  42399000  -4080.0855    
  42400000  -4103.2848    
  42401000  -4203.3483    
  42402000  -4089.6152    
  42403000  -4121.1026    
  42404000  -4100.3233    
  42405000  -4093.59      
  42406000  -4100.0417    
  42407000  -4194.8223    
  42408000  -4146.4606    
  42409000  -4049.9879    
  42410000  -4166.5651    
  42411000  -4214.207     
  42412000  -4085.5977    
  42413000  -4082.1397    
  42414000  -4132.3183    
  42415000  -4009.2806    
  42416000  -4077.3309    
  42417000  -4131.6478    
  42418000  -4177.5168    
  42419000  -4087.1138    
  42420000  -4187.0767    
  42421000  -4174.2249    
  42422000  -4218.9905    
  42423000  -4282.2012    
  42424000  -4229.6769    
  42425000  -4268.9764    
  42426000  -4273.1631    
  42427000  -4209.0793    
  42428000  -4146.2951    
  42429000  -4123.6699    
  42430000  -4106.5733    
  42431000  -4061.0743    
  42432000  -4050.5353    
  42433000  -4023.3725    
  42434000  -4042.0585    
  42435000  -3995.5673    
  42436000  -3909.0669    
  42437000  -3992.7618    
  42438000  -3953.561     
  42439000  -3941.8651    
  42440000  -3866.8102    
  42441000  -3868.4278    
  42442000  -3916.5525    
  42443000  -3952.6031    
  42444000  -3950.6585    
  42445000  -3982.4714    
  42446000  -3905.5276    
  42447000  -3900.4671    
  42448000  -3886.0873    
  42449000  -4018.8582    
  42450000  -3985.4301    
  42451000  -3913.7823    
  42452000  -3938.0801    
  42453000  -3987.1348    
  42454000  -4001.6214    
  42455000  -3974.511     
  42456000  -4062.9556    
  42457000  -4001.8933    
  42458000  -4036.9009    
  42459000  -3928.8625    
  42460000  -4087.6906    
  42461000  -4121.184     
  42462000  -4066.1715    
  42463000  -4071.9479    
  42464000  -4141.7405    
  42465000  -4041.7918    
  42466000  -4181.7367    
  42467000  -4163.3144    
  42468000  -4152.2762    
  42469000  -4080.2042    
  42470000  -4017.7215    
  42471000  -4094.5078    
  42472000  -4081.0877    
  42473000  -4039.0176    
  42474000  -4154.9543    
  42475000  -4066.9764    
  42476000  -3948.1778    
  42477000  -4064.5761    
  42478000  -3981.0064    
  42479000  -4063.7609    
  42480000  -4049.3499    
  42481000  -4040.2809    
  42482000  -4071.5762    
  42483000  -4025.4058    
  42484000  -4082.451     
  42485000  -4037.3576    
  42486000  -4004.9497    
  42487000  -3991.5217    
  42488000  -4035.5087    
  42489000  -4025.9413    
  42490000  -4018.7277    
  42491000  -4094.2329    
  42492000  -4021.6735    
  42493000  -4033.1169    
  42494000  -4083.6868    
  42495000  -4107.5562    
  42496000  -4108.9375    
  42497000  -4061.5604    
  42498000  -4071.1177    
  42499000  -4132.2408    
  42500000  -4009.1446    
  42501000  -4050.7276    
  42502000  -4038.9166    
  42503000  -4030.0114    
  42504000  -4110.4658    
  42505000  -4170.2401    
  42506000  -4169.6207    
  42507000  -4090.3277    
  42508000  -4104.4301    
  42509000  -4173.776     
  42510000  -4086.8641    
  42511000  -4097.0894    
  42512000  -4122.1101    
  42513000  -4015.5052    
  42514000  -4089.857     
  42515000  -4131.5637    
  42516000  -4076.5229    
  42517000  -4152.9114    
  42518000  -4048.4517    
  42519000  -4061.1648    
  42520000  -4075.7861    
  42521000  -4061.0498    
  42522000  -4004.1875    
  42523000  -4036.5143    
  42524000  -4150.1385    
  42525000  -4058.4991    
  42526000  -4132.1013    
  42527000  -3999.2467    
  42528000  -4017.1842    
  42529000  -4064.6676    
  42530000  -3933.7705    
  42531000  -3943.5245    
  42532000  -4006.8233    
  42533000  -4111.4332    
  42534000  -3999.0542    
  42535000  -4043.5594    
  42536000  -4038.1603    
  42537000  -4087.3721    
  42538000  -4046.9785    
  42539000  -4037.8825    
  42540000  -3983.7451    
  42541000  -3968.9582    
  42542000  -3960.4996    
  42543000  -3938.1869    
  42544000  -3899.4317    
  42545000  -3915.4666    
  42546000  -3947.9943    
  42547000  -3986.4709    
  42548000  -3926.491     
  42549000  -3974.2443    
  42550000  -4022.9371    
  42551000  -4050.7966    
  42552000  -4002.0158    
  42553000  -4049.0234    
  42554000  -4024.6456    
  42555000  -4092.7139    
  42556000  -4030.0389    
  42557000  -3994.1025    
  42558000  -4134.7614    
  42559000  -3960.3645    
  42560000  -3950.8792    
  42561000  -4039.9123    
  42562000  -3987.4937    
  42563000  -3997.8452    
  42564000  -3909.6371    
  42565000  -3965.89      
  42566000  -3997.8955    
  42567000  -4029.1424    
  42568000  -4048.4407    
  42569000  -4075.8157    
  42570000  -3969.154     
  42571000  -3929.9987    
  42572000  -3980.1059    
  42573000  -3967.9047    
  42574000  -4055.4386    
  42575000  -3955.1568    
  42576000  -4103.0851    
  42577000  -3993.3324    
  42578000  -4013.0742    
  42579000  -4097.4479    
  42580000  -4085.6255    
  42581000  -3940.7223    
  42582000  -4043.1339    
  42583000  -4006.9036    
  42584000  -4086.2876    
  42585000  -4085.794     
  42586000  -4106.1979    
  42587000  -4117.8893    
  42588000  -4100.3371    
  42589000  -4118.3359    
  42590000  -4175.3889    
  42591000  -4071.7581    
  42592000  -4022.6391    
  42593000  -4125.9827    
  42594000  -4135.7741    
  42595000  -4056.6016    
  42596000  -4037.3425    
  42597000  -4055.0778    
  42598000  -4145.925     
  42599000  -4160.4997    
  42600000  -4111.7887    
  42601000  -4191.8874    
  42602000  -4103.3687    
  42603000  -4035.4148    
  42604000  -4043.6483    
  42605000  -4085.9686    
  42606000  -3995.5323    
  42607000  -4004.3046    
  42608000  -3979.1629    
  42609000  -4027.0963    
  42610000  -4026.7502    
  42611000  -3908.7887    
  42612000  -3912.5775    
  42613000  -3956.8835    
  42614000  -4036.2964    
  42615000  -3949.1048    
  42616000  -4019.7178    
  42617000  -3999.5695    
  42618000  -3973.1172    
  42619000  -4089.0583    
  42620000  -3994.057     
  42621000  -3930.0311    
  42622000  -3944.0412    
  42623000  -4027.5003    
  42624000  -3986.6331    
  42625000  -3966.2379    
  42626000  -4076.9601    
  42627000  -3961.7222    
  42628000  -4081.5119    
  42629000  -4000.1468    
  42630000  -3995.6822    
  42631000  -4047.3066    
  42632000  -4104.0647    
  42633000  -4021.7167    
  42634000  -4019.7602    
  42635000  -4137.7335    
  42636000  -4024.9228    
  42637000  -4021.2821    
  42638000  -4069.9499    
  42639000  -3929.6182    
  42640000  -4075.6056    
  42641000  -4052.8249    
  42642000  -4078.2103    
  42643000  -4040.133     
  42644000  -4018.8235    
  42645000  -3933.5397    
  42646000  -4037.0716    
  42647000  -4046.2394    
  42648000  -4100.5687    
  42649000  -4137.6843    
  42650000  -4092.9256    
  42651000  -4094.1659    
  42652000  -4143.5651    
  42653000  -4228.7439    
  42654000  -4124.184     
  42655000  -4138.2292    
  42656000  -4046.3747    
  42657000  -4101.2666    
  42658000  -4209.8034    
  42659000  -4077.2314    
  42660000  -4266.3323    
  42661000  -4122.7075    
  42662000  -4179.3168    
  42663000  -4127.664     
  42664000  -4182.7388    
  42665000  -4166.4295    
  42666000  -4207.152     
  42667000  -4138.3489    
  42668000  -4172.586     
  42669000  -4186.3432    
  42670000  -4094.1083    
  42671000  -4302.9361    
  42672000  -4129.7714    
  42673000  -4149.9406    
  42674000  -4214.704     
  42675000  -4191.5382    
  42676000  -4344.292     
  42677000  -4292.8536    
  42678000  -4238.9205    
  42679000  -4270.1975    
  42680000  -4205.1281    
  42681000  -4204.3617    
  42682000  -4221.0676    
  42683000  -4248.8895    
  42684000  -4121.4686    
  42685000  -4165.2535    
  42686000  -4196.0342    
  42687000  -4094.1533    
  42688000  -4157.1742    
  42689000  -4218.9173    
  42690000  -4159.7744    
  42691000  -4211.8833    
  42692000  -4241.9161    
  42693000  -4098.734     
  42694000  -4139.2546    
  42695000  -4081.7637    
  42696000  -4094.2198    
  42697000  -4087.2099    
  42698000  -4107.0531    
  42699000  -3981.6898    
  42700000  -4010.2005    
  42701000  -3943.9052    
  42702000  -4031.686     
  42703000  -4092.9484    
  42704000  -3966.7572    
  42705000  -4021.3233    
  42706000  -4009.0226    
  42707000  -3996.4492    
  42708000  -4040         
  42709000  -4071.0162    
  42710000  -4107.9102    
  42711000  -4038.2412    
  42712000  -4096.4533    
  42713000  -4090.4245    
  42714000  -4124.0751    
  42715000  -4148.7109    
  42716000  -4062.3738    
  42717000  -4079.2272    
  42718000  -4054.9171    
  42719000  -4108.0195    
  42720000  -4141.5222    
  42721000  -4161.019     
  42722000  -4143.2465    
  42723000  -4163.0287    
  42724000  -4051.9735    
  42725000  -4087.9902    
  42726000  -4042.2084    
  42727000  -4011.5539    
  42728000  -4101.2336    
  42729000  -4115.0963    
  42730000  -4106.3343    
  42731000  -4081.2544    
  42732000  -4035.1853    
  42733000  -4131.3601    
  42734000  -4068.3803    
  42735000  -4101.8455    
  42736000  -4093.0845    
  42737000  -4086.345     
  42738000  -3982.1774    
  42739000  -4033.6518    
  42740000  -4024.7768    
  42741000  -4069.7077    
  42742000  -4073.5281    
  42743000  -4011.6713    
  42744000  -4019.8133    
  42745000  -3952.1923    
  42746000  -4027.6978    
  42747000  -3980.5424    
  42748000  -4005.4328    
  42749000  -4079.8701    
  42750000  -4075.5623    
  42751000  -4040.6177    
  42752000  -4159.0402    
  42753000  -4056.4554    
  42754000  -4071.3984    
  42755000  -4164.5191    
  42756000  -4052.5579    
  42757000  -4041.0528    
  42758000  -3988.4117    
  42759000  -4021.2274    
  42760000  -4060.8687    
  42761000  -4103.0983    
  42762000  -4101.2584    
  42763000  -4135.7579    
  42764000  -4084.5954    
  42765000  -4035.5687    
  42766000  -3999.6399    
  42767000  -3926.1228    
  42768000  -3995.9589    
  42769000  -4029.5988    
  42770000  -3962.3268    
  42771000  -4039.7533    
  42772000  -4058.7       
  42773000  -4028.2749    
  42774000  -4009.9195    
  42775000  -4074.7121    
  42776000  -3957.124     
  42777000  -3985.6342    
  42778000  -4106.919     
  42779000  -4025.2345    
  42780000  -3984.0617    
  42781000  -4049.9364    
  42782000  -4016.4726    
  42783000  -3937.9703    
  42784000  -3948.7005    
  42785000  -3959.7538    
  42786000  -4027.9815    
  42787000  -3950.7445    
  42788000  -3953.6362    
  42789000  -4017.6014    
  42790000  -4035.1965    
  42791000  -4090.898     
  42792000  -4095.8433    
  42793000  -4075.7388    
  42794000  -4090.6706    
  42795000  -4051.7243    
  42796000  -4010.3029    
  42797000  -3952.1355    
  42798000  -3970.3817    
  42799000  -4015.1903    
  42800000  -3966.9327    
  42801000  -3952.8804    
  42802000  -3985.1891    
  42803000  -4006.6021    
  42804000  -4045.9475    
  42805000  -3987.3937    
  42806000  -4052.4007    
  42807000  -3965.637     
  42808000  -3984.3462    
  42809000  -4028.1764    
  42810000  -3945.6146    
  42811000  -3968.9902    
  42812000  -3931.4921    
  42813000  -3993.1881    
  42814000  -3979.0496    
  42815000  -4062.2423    
  42816000  -4082.5404    
  42817000  -4173.6356    
  42818000  -4166.6816    
  42819000  -4260.6671    
  42820000  -4164.226     
  42821000  -4148.1896    
  42822000  -4057.1511    
  42823000  -4133.1992    
  42824000  -4118.5681    
  42825000  -4102.0614    
  42826000  -4154.1365    
  42827000  -4138.3387    
  42828000  -4176.4333    
  42829000  -4050.6197    
  42830000  -4078.4496    
  42831000  -4012.7683    
  42832000  -4032.6052    
  42833000  -4020.9308    
  42834000  -4025.9353    
  42835000  -4068.6922    
  42836000  -4100.3336    
  42837000  -4013.5713    
  42838000  -4055.5979    
  42839000  -4140.7951    
  42840000  -4227.0613    
  42841000  -4100.4339    
  42842000  -4230.8142    
  42843000  -4125.4146    
  42844000  -4203.9502    
  42845000  -4205.0694    
  42846000  -4125.8688    
  42847000  -4208.0481    
  42848000  -4158.1075    
  42849000  -4175.49      
  42850000  -4134.7775    
  42851000  -4172.0188    
  42852000  -4119.0817    
  42853000  -3986.5823    
  42854000  -4067.6156    
  42855000  -4158.9435    
  42856000  -3962.9526    
  42857000  -4097.4458    
  42858000  -3999.1212    
  42859000  -4170.7476    
  42860000  -4076.479     
  42861000  -4094.7466    
  42862000  -4029.7006    
  42863000  -4129.8828    
  42864000  -4111.9105    
  42865000  -4094.1806    
  42866000  -4052.1866    
  42867000  -4066.607     
  42868000  -4108.2946    
  42869000  -4132.5511    
  42870000  -4142.1395    
  42871000  -4140.238     
  42872000  -4191.8688    
  42873000  -4232.2789    
  42874000  -4233.6807    
  42875000  -4286.698     
  42876000  -4160.4092    
  42877000  -4134.8201    
  42878000  -4143.2117    
  42879000  -4289.5072    
  42880000  -4210.6442    
  42881000  -4249.143     
  42882000  -4291.7853    
  42883000  -4297.8958    
  42884000  -4324.9515    
  42885000  -4296.3312    
  42886000  -4260.4306    
  42887000  -4277.3327    
  42888000  -4342.7721    
  42889000  -4253.4469    
  42890000  -4248.3508    
  42891000  -4185.1222    
  42892000  -4224.4214    
  42893000  -4232.419     
  42894000  -4158.9104    
  42895000  -4255.8178    
  42896000  -4277.6951    
  42897000  -4249.3891    
  42898000  -4245.7905    
  42899000  -4153.7639    
  42900000  -4168.6508    
  42901000  -4296.5134    
  42902000  -4309.2481    
  42903000  -4237.1157    
  42904000  -4219.4945    
  42905000  -4336.3514    
  42906000  -4278.8768    
  42907000  -4473.574     
  42908000  -4304.6449    
  42909000  -4195.133     
  42910000  -4254.3832    
  42911000  -4168.7721    
  42912000  -4248.1866    
  42913000  -4283.8744    
  42914000  -4313.3125    
  42915000  -4266.1992    
  42916000  -4263.2343    
  42917000  -4299.7231    
  42918000  -4341.6377    
  42919000  -4323.6281    
  42920000  -4278.8565    
  42921000  -4331.7539    
  42922000  -4291.9399    
  42923000  -4198.3821    
  42924000  -4209.1608    
  42925000  -4200.6326    
  42926000  -4138.0392    
  42927000  -4136.1802    
  42928000  -4278.7389    
  42929000  -4128.4783    
  42930000  -4099.6325    
  42931000  -4141.3507    
  42932000  -4258.3888    
  42933000  -4203.6334    
  42934000  -4134.6945    
  42935000  -4211.3307    
  42936000  -4061.5471    
  42937000  -4164.9587    
  42938000  -4129.5503    
  42939000  -4160.6508    
  42940000  -4129.0434    
  42941000  -4194.6256    
  42942000  -4079.7601    
  42943000  -4169.9414    
  42944000  -4073.0502    
  42945000  -4116.5205    
  42946000  -4155.9036    
  42947000  -4191.0398    
  42948000  -4112.0597    
  42949000  -4114.363     
  42950000  -4182.666     
  42951000  -4203.045     
  42952000  -4190.9919    
  42953000  -4219.2824    
  42954000  -4240.4152    
  42955000  -4167.73      
  42956000  -4166.9143    
  42957000  -4188.8846    
  42958000  -4210.3622    
  42959000  -4230.2303    
  42960000  -4245.105     
  42961000  -4103.8015    
  42962000  -4134.777     
  42963000  -4117.8696    
  42964000  -4138.1724    
  42965000  -4016.6889    
  42966000  -4112.1519    
  42967000  -4055.7917    
  42968000  -4008.719     
  42969000  -4115.233     
  42970000  -4038.6408    
  42971000  -4008.8171    
  42972000  -4082.7269    
  42973000  -4078.4865    
  42974000  -4066.6337    
  42975000  -4104.7109    
  42976000  -4041.6679    
  42977000  -4024.9666    
  42978000  -4069.0376    
  42979000  -4068.3293    
  42980000  -4084.238     
  42981000  -4133.0075    
  42982000  -4138.5961    
  42983000  -4142.8532    
  42984000  -4165.1959    
  42985000  -4178.2729    
  42986000  -4197.2209    
  42987000  -4174.2007    
  42988000  -4145.2802    
  42989000  -4171.9254    
  42990000  -4222.1228    
  42991000  -4200.7044    
  42992000  -4189.0735    
  42993000  -4170.771     
  42994000  -4202.3789    
  42995000  -4201.4831    
  42996000  -4116.508     
  42997000  -4011.4312    
  42998000  -4135.0881    
  42999000  -4123.1543    
  43000000  -4110.0923    
  43001000  -3979.1651    
  43002000  -4021.0704    
  43003000  -4087.1879    
  43004000  -4110.7597    
  43005000  -4068.0467    
  43006000  -4121.001     
  43007000  -4125.7431    
  43008000  -4137.0382    
  43009000  -4118.0974    
  43010000  -4091.7913    
  43011000  -4149.3405    
  43012000  -4186.9229    
  43013000  -4245.7218    
  43014000  -4213.996     
  43015000  -4157.6203    
  43016000  -4152.1143    
  43017000  -4089.7207    
  43018000  -4096.3708    
  43019000  -4065.7313    
  43020000  -4106.5609    
  43021000  -4155.9467    
  43022000  -4051.2037    
  43023000  -4232.6428    
  43024000  -4107.8363    
  43025000  -4223.6862    
  43026000  -4205.303     
  43027000  -4105.603     
  43028000  -4191.6225    
  43029000  -4118.5354    
  43030000  -4145.2536    
  43031000  -4133.5067    
  43032000  -4152.059     
  43033000  -4145.8467    
  43034000  -4129.3991    
  43035000  -4147.7178    
  43036000  -4103.6523    
  43037000  -4170.4878    
  43038000  -4203.2583    
  43039000  -4097.8396    
  43040000  -4146.3533    
  43041000  -4080.3429    
  43042000  -4168.6117    
  43043000  -4157.8293    
  43044000  -4178.0662    
  43045000  -4126.5967    
  43046000  -4166.945     
  43047000  -4188.4699    
  43048000  -4164.6441    
  43049000  -4238.3747    
  43050000  -4253.3936    
  43051000  -4137.6354    
  43052000  -4136.5325    
  43053000  -4171.5318    
  43054000  -4171.4426    
  43055000  -4156.6767    
  43056000  -4109.5878    
  43057000  -4103.4599    
  43058000  -4219.8477    
  43059000  -4156.1004    
  43060000  -4063.1847    
  43061000  -4135.2179    
  43062000  -4148.4187    
  43063000  -4038.5007    
  43064000  -4165.8304    
  43065000  -4129.5674    
  43066000  -4051.5544    
  43067000  -4039.7586    
  43068000  -4161.3228    
  43069000  -4123.0112    
  43070000  -4079.7197    
  43071000  -4009.4011    
  43072000  -4101.375     
  43073000  -4157.7798    
  43074000  -3964.6451    
  43075000  -3975.9729    
  43076000  -4016.8939    
  43077000  -3976.7445    
  43078000  -4081.0651    
  43079000  -4041.4913    
  43080000  -4026.8842    
  43081000  -3979.6767    
  43082000  -3966.5909    
  43083000  -4099.4731    
  43084000  -4060.5105    
  43085000  -4124.5727    
  43086000  -4087.9607    
  43087000  -4123.1936    
  43088000  -4119.1696    
  43089000  -4125.2836    
  43090000  -4104.358     
  43091000  -4093.2552    
  43092000  -4107.1738    
  43093000  -4235.3812    
  43094000  -4063.802     
  43095000  -4063.1973    
  43096000  -4168.3484    
  43097000  -4091.3839    
  43098000  -4141.8033    
  43099000  -4231.3663    
  43100000  -4232.63      
  43101000  -4147.5976    
  43102000  -4091.4855    
  43103000  -4143.1017    
  43104000  -4104.7563    
  43105000  -4098.0769    
  43106000  -4115.7323    
  43107000  -4176.4464    
  43108000  -4131.1081    
  43109000  -4099.7579    
  43110000  -4121.7587    
  43111000  -4155.1314    
  43112000  -4155.2026    
  43113000  -4003.8       
  43114000  -4013.7477    
  43115000  -4099.2411    
  43116000  -4141.5372    
  43117000  -4167.4891    
  43118000  -4154.3257    
  43119000  -4208.9563    
  43120000  -4106.9344    
  43121000  -4183.3043    
  43122000  -4113.2644    
  43123000  -4158.9625    
  43124000  -4079.5057    
  43125000  -4071.1465    
  43126000  -4043.8087    
  43127000  -4114.7383    
  43128000  -4041.0786    
  43129000  -3963.5556    
  43130000  -4004.1933    
  43131000  -4092.2891    
  43132000  -4035.9869    
  43133000  -4101.8322    
  43134000  -4013.9791    
  43135000  -4038.4017    
  43136000  -4020.2229    
  43137000  -3960.0353    
  43138000  -3969.2934    
  43139000  -4016.7823    
  43140000  -3980.1991    
  43141000  -3972.1167    
  43142000  -4081.5246    
  43143000  -3955.5979    
  43144000  -3961.8867    
  43145000  -3903.2683    
  43146000  -4085.3186    
  43147000  -3976.8403    
  43148000  -4017.8154    
  43149000  -3992.0739    
  43150000  -4030.6445    
  43151000  -3952.6865    
  43152000  -4088.6372    
  43153000  -4052.762     
  43154000  -4059.0306    
  43155000  -4040.0296    
  43156000  -4079.0526    
  43157000  -4020.0427    
  43158000  -4051.9796    
  43159000  -3973.8368    
  43160000  -4008.4623    
  43161000  -4060.1081    
  43162000  -4059.5334    
  43163000  -4061.8099    
  43164000  -4068.9545    
  43165000  -3991.4979    
  43166000  -4062.1642    
  43167000  -4039.925     
  43168000  -4046.6999    
  43169000  -3982.8952    
  43170000  -4072.6414    
  43171000  -4122.3437    
  43172000  -4088.837     
  43173000  -4008.442     
  43174000  -4036.3159    
  43175000  -4013.2016    
  43176000  -3990.0552    
  43177000  -3999.4825    
  43178000  -4016.4138    
  43179000  -3843.1097    
  43180000  -3899.7301    
  43181000  -3903.2457    
  43182000  -4031.3264    
  43183000  -4015.8074    
  43184000  -4040.6322    
  43185000  -4127.5967    
  43186000  -4075.9651    
  43187000  -3988.0663    
  43188000  -4102.0175    
  43189000  -4057.4789    
  43190000  -4066.5496    
  43191000  -4070.515     
  43192000  -4046.7559    
  43193000  -4120.4706    
  43194000  -4141.4202    
  43195000  -4101.1952    
  43196000  -4118.1891    
  43197000  -4080.1282    
  43198000  -4135.1577    
  43199000  -4167.1503    
  43200000  -4062.8567    
  43201000  -4184.1998    
  43202000  -4139.4631    
  43203000  -4088.6228    
  43204000  -4214.8182    
  43205000  -4140.8189    
  43206000  -4191.1595    
  43207000  -4159.6318    
  43208000  -4200.4525    
  43209000  -4207.5087    
  43210000  -4240.6171    
  43211000  -4194.2545    
  43212000  -4252.1131    
  43213000  -4192.9442    
  43214000  -4147.3893    
  43215000  -4173.9267    
  43216000  -4112.6       
  43217000  -4069.0947    
  43218000  -4074.5188    
  43219000  -4096.023     
  43220000  -4098.0947    
  43221000  -4089.1362    
  43222000  -4046.0133    
  43223000  -4118.0853    
  43224000  -4070.7763    
  43225000  -3924.5176    
  43226000  -4012.8548    
  43227000  -3979.6755    
  43228000  -3936.8322    
  43229000  -3883.4122    
  43230000  -3939.1068    
  43231000  -3959.622     
  43232000  -3966.833     
  43233000  -4031.7974    
  43234000  -3977.2243    
  43235000  -3953.4838    
  43236000  -3970.5632    
  43237000  -3986.4118    
  43238000  -3958.9841    
  43239000  -3969.0496    
  43240000  -4036.063     
  43241000  -4042.7262    
  43242000  -4055.4807    
  43243000  -4000.6005    
  43244000  -3984.0939    
  43245000  -4014.0328    
  43246000  -3995.1116    
  43247000  -4007.91      
  43248000  -4080.294     
  43249000  -3964.7338    
  43250000  -4043.1223    
  43251000  -3993.5229    
  43252000  -4044.0637    
  43253000  -4052.2332    
  43254000  -4103.064     
  43255000  -4045.0219    
  43256000  -4165.6807    
  43257000  -4078.3245    
  43258000  -4052.6711    
  43259000  -4015.4077    
  43260000  -3970.1563    
  43261000  -4010.5375    
  43262000  -4047.9381    
  43263000  -3972.0218    
  43264000  -3999.6176    
  43265000  -3943.6956    
  43266000  -4029.5851    
  43267000  -4041.1101    
  43268000  -4072.9259    
  43269000  -4077.9813    
  43270000  -4032.8917    
  43271000  -3940.6289    
  43272000  -4107.9929    
  43273000  -4094.3488    
  43274000  -4070.1056    
  43275000  -4096.9612    
  43276000  -4090.2956    
  43277000  -4055.4962    
  43278000  -4072.4992    
  43279000  -4111.5904    
  43280000  -4062.3966    
  43281000  -4147.6915    
  43282000  -4011.2886    
  43283000  -4113.0183    
  43284000  -3995.1097    
  43285000  -3995.8836    
  43286000  -4030.8203    
  43287000  -4077.7757    
  43288000  -4064.9213    
  43289000  -4086.1516    
  43290000  -3948.3349    
  43291000  -3937.2918    
  43292000  -3910.7698    
  43293000  -4039.7981    
  43294000  -3952.6202    
  43295000  -3912.1347    
  43296000  -3880.9052    
  43297000  -3926.3284    
  43298000  -3966.8037    
  43299000  -3960.303     
  43300000  -3995.6231    
  43301000  -3946.0592    
  43302000  -3969.6799    
  43303000  -3830.6977    
  43304000  -4034.6531    
  43305000  -4044.069     
  43306000  -4085.7365    
  43307000  -3998.6925    
  43308000  -4020.0861    
  43309000  -3988.4963    
  43310000  -4077.9652    
  43311000  -4082.858     
  43312000  -4095.0014    
  43313000  -4193.7084    
  43314000  -4095.7066    
  43315000  -4069.2281    
  43316000  -4021.0089    
  43317000  -4074.6688    
  43318000  -4164.0087    
  43319000  -4059.2571    
  43320000  -4143.9709    
  43321000  -4103.6732    
  43322000  -4090.372     
  43323000  -4103.9515    
  43324000  -4227.8789    
  43325000  -4118.0695    
  43326000  -4167.7758    
  43327000  -4050.0379    
  43328000  -4207.2455    
  43329000  -4160.6835    
  43330000  -4198.354     
  43331000  -4201.606     
  43332000  -4196.1572    
  43333000  -4131.8542    
  43334000  -4206.4261    
  43335000  -4077.2099    
  43336000  -4142.7178    
  43337000  -4169.6307    
  43338000  -4158.6404    
  43339000  -4045.736     
  43340000  -4098.8142    
  43341000  -4094.0675    
  43342000  -4058.8301    
  43343000  -4179.248     
  43344000  -4012.0309    
  43345000  -4103.5927    
  43346000  -4087.6458    
  43347000  -4148.6052    
  43348000  -4026.5098    
  43349000  -4195.6412    
  43350000  -4110.2247    
  43351000  -4101.7738    
  43352000  -4068.1764    
  43353000  -4122.3521    
  43354000  -4176.9203    
  43355000  -4158.9134    
  43356000  -4106.2531    
  43357000  -4117.4891    
  43358000  -4183.4255    
  43359000  -4177.3429    
  43360000  -4137.6193    
  43361000  -4139.2271    
  43362000  -4114.7988    
  43363000  -4065.3982    
  43364000  -4058.4322    
  43365000  -4103.8957    
  43366000  -4122.846     
  43367000  -4023.4539    
  43368000  -4057.6993    
  43369000  -4103.243     
  43370000  -4118.7157    
  43371000  -3999.8553    
  43372000  -4079.1804    
  43373000  -4005.319     
  43374000  -4043.8255    
  43375000  -4064.3855    
  43376000  -4108.8196    
  43377000  -4104.6006    
  43378000  -4153.4278    
  43379000  -4138.8594    
  43380000  -4112.9839    
  43381000  -4120.9791    
  43382000  -4178.4072    
  43383000  -4205.892     
  43384000  -4097.5537    
  43385000  -4102.5588    
  43386000  -4078.6363    
  43387000  -4131.5577    
  43388000  -4061.4947    
  43389000  -4069.951     
  43390000  -4114.9839    
  43391000  -4102.7151    
  43392000  -4249.5152    
  43393000  -4174.2136    
  43394000  -4111.7726    
  43395000  -4197.4901    
  43396000  -4226.1523    
  43397000  -4152.379     
  43398000  -4157.5988    
  43399000  -4090.5166    
  43400000  -4112.1969    
  43401000  -3975.0708    
  43402000  -4142.2018    
  43403000  -4054.044     
  43404000  -4139.9755    
  43405000  -4061.584     
  43406000  -4034.4405    
  43407000  -4055.7624    
  43408000  -4034.7878    
  43409000  -4141.0624    
  43410000  -4058.5379    
  43411000  -4096.8092    
  43412000  -4184.0046    
  43413000  -4128.7151    
  43414000  -4168.3183    
  43415000  -4140.0372    
  43416000  -4090.1665    
  43417000  -4056.9422    
  43418000  -4055.0565    
  43419000  -3927.4866    
  43420000  -3985.3525    
  43421000  -4084.1494    
  43422000  -4020.465     
  43423000  -4017.8933    
  43424000  -3975.6275    
  43425000  -3966.4387    
  43426000  -4013.4701    
  43427000  -4062.9007    
  43428000  -4034.7916    
  43429000  -3946.2544    
  43430000  -4027.3981    
  43431000  -3956.0218    
  43432000  -4065.8855    
  43433000  -4095.4176    
  43434000  -4033.3177    
  43435000  -3959.9436    
  43436000  -4108.416     
  43437000  -4057.0208    
  43438000  -4087.6646    
  43439000  -4043.7287    
  43440000  -4001.102     
  43441000  -4123.7734    
  43442000  -4047.8972    
  43443000  -4082.0693    
  43444000  -4121.7528    
  43445000  -4096.0753    
  43446000  -4148.2764    
  43447000  -4096.5215    
  43448000  -4169.6203    
  43449000  -4243.9395    
  43450000  -4214.4722    
  43451000  -4263.662     
  43452000  -4313.3709    
  43453000  -4201.1757    
  43454000  -4234.7115    
  43455000  -4266.751     
  43456000  -4128.322     
  43457000  -4104.4436    
  43458000  -4196.3845    
  43459000  -4221.4217    
  43460000  -4252.8777    
  43461000  -4165.6502    
  43462000  -4229.7935    
  43463000  -4198.2244    
  43464000  -4226.3029    
  43465000  -4180.5108    
  43466000  -4146.4195    
  43467000  -4155.7878    
  43468000  -4171.0702    
  43469000  -4206.1027    
  43470000  -4291.2658    
  43471000  -4178.2223    
  43472000  -4141.2885    
  43473000  -4180.2091    
  43474000  -4125.4631    
  43475000  -4199.2507    
  43476000  -4139.5929    
  43477000  -4097.0954    
  43478000  -4052.6977    
  43479000  -4074.6634    
  43480000  -4059.7866    
  43481000  -4099.2674    
  43482000  -4269.2991    
  43483000  -4189.1472    
  43484000  -4213.3296    
  43485000  -4181.9799    
  43486000  -4168.3019    
  43487000  -4125.2687    
  43488000  -4063.0773    
  43489000  -4204.1561    
  43490000  -4130.2523    
  43491000  -4083.5382    
  43492000  -4065.4738    
  43493000  -4157.7549    
  43494000  -4163.1102    
  43495000  -4110.3145    
  43496000  -4140.3882    
  43497000  -4191.6193    
  43498000  -4104.3884    
  43499000  -4106.5754    
  43500000  -3998.5604    
  43501000  -3985.3642    
  43502000  -3980.6103    
  43503000  -3950.532     
  43504000  -3985.528     
  43505000  -4104.5749    
  43506000  -3954.1582    
  43507000  -3916.2414    
  43508000  -4000.265     
  43509000  -4022.4199    
  43510000  -4056.4496    
  43511000  -4029.8969    
  43512000  -4003.9824    
  43513000  -3963.5159    
  43514000  -4026.0237    
  43515000  -4056.3865    
  43516000  -4096.3878    
  43517000  -4035.0088    
  43518000  -4063.6574    
  43519000  -4061.9509    
  43520000  -4024.6767    
  43521000  -4054.4104    
  43522000  -4036.1723    
  43523000  -4088.6838    
  43524000  -4016.7688    
  43525000  -4012.8301    
  43526000  -3987.8413    
  43527000  -4072.9527    
  43528000  -4162.9794    
  43529000  -4103.6928    
  43530000  -4097.8527    
  43531000  -4031.5772    
  43532000  -4110.665     
  43533000  -4106.5206    
  43534000  -4188.0546    
  43535000  -4199.9773    
  43536000  -4104.9286    
  43537000  -4132.7607    
  43538000  -4052.893     
  43539000  -4049.7265    
  43540000  -3960.9203    
  43541000  -4069.4064    
  43542000  -4034.353     
  43543000  -4072.3732    
  43544000  -4100.2282    
  43545000  -4121.0122    
  43546000  -4109.876     
  43547000  -4071.9732    
  43548000  -4068.4597    
  43549000  -4124.1496    
  43550000  -4143.1896    
  43551000  -4127.141     
  43552000  -4201.8351    
  43553000  -4134.368     
  43554000  -4202.249     
  43555000  -4200.4227    
  43556000  -4095.9318    
  43557000  -4087.5423    
  43558000  -4048.8961    
  43559000  -4032.4277    
  43560000  -4056.9823    
  43561000  -4039.6972    
  43562000  -3885.2837    
  43563000  -4026.7804    
  43564000  -3859.2164    
  43565000  -4009.0248    
  43566000  -4006.3763    
  43567000  -4054.0306    
  43568000  -4033.0962    
  43569000  -4129.493     
  43570000  -4017.1749    
  43571000  -4074.6907    
  43572000  -3983.273     
  43573000  -3924.815     
  43574000  -4015.9069    
  43575000  -4024.9264    
  43576000  -4004.9739    
  43577000  -3995.3338    
  43578000  -3927.2872    
  43579000  -4023.3628    
  43580000  -4060.1223    
  43581000  -4067.4817    
  43582000  -4122.5934    
  43583000  -3964.633     
  43584000  -4235.4239    
  43585000  -4145.9944    
  43586000  -4165.7231    
  43587000  -4167.128     
  43588000  -4052.179     
  43589000  -4193.6903    
  43590000  -4175.8475    
  43591000  -4138.0971    
  43592000  -4171.8448    
  43593000  -4240.7281    
  43594000  -4103.9379    
  43595000  -4046.33      
  43596000  -4128.5542    
  43597000  -4054.1175    
  43598000  -4033.6918    
  43599000  -4082.9767    
  43600000  -4080.1403    
  43601000  -3982.0617    
  43602000  -4026.8894    
  43603000  -3992.3026    
  43604000  -3904.7396    
  43605000  -3960.5003    
  43606000  -4046.2612    
  43607000  -3970.2775    
  43608000  -4018.8032    
  43609000  -3909.1767    
  43610000  -3908.5667    
  43611000  -3959.5866    
  43612000  -3967.4564    
  43613000  -4029.0959    
  43614000  -4105.7689    
  43615000  -3929.1534    
  43616000  -3914.962     
  43617000  -3972.5516    
  43618000  -3985.9931    
  43619000  -3969.6047    
  43620000  -3953.5087    
  43621000  -3954.4839    
  43622000  -3949.4414    
  43623000  -4031.857     
  43624000  -4096.2729    
  43625000  -4027.9362    
  43626000  -4055.0229    
  43627000  -4040.252     
  43628000  -4032.4952    
  43629000  -3951.7374    
  43630000  -4007.9603    
  43631000  -4190.0445    
  43632000  -4130.1711    
  43633000  -4125.7177    
  43634000  -4113.3144    
  43635000  -4136.9175    
  43636000  -4119.1902    
  43637000  -4133.229     
  43638000  -4150.575     
  43639000  -4136.6631    
  43640000  -4143.8513    
  43641000  -4149.133     
  43642000  -4221.234     
  43643000  -4232.8716    
  43644000  -4252.7179    
  43645000  -4239.4053    
  43646000  -4318.5899    
  43647000  -4192.911     
  43648000  -4214.2447    
  43649000  -4204.7653    
  43650000  -4215.6096    
  43651000  -4371.12      
  43652000  -4375.3325    
  43653000  -4304.5908    
  43654000  -4255.5527    
  43655000  -4344.8256    
  43656000  -4351.9976    
  43657000  -4308.4197    
  43658000  -4311.434     
  43659000  -4374.5253    
  43660000  -4169.8054    
  43661000  -4306.4646    
  43662000  -4197.55      
  43663000  -4257.224     
  43664000  -4154.4389    
  43665000  -4244.1258    
  43666000  -4293.7146    
  43667000  -4154.545     
  43668000  -4232.1944    
  43669000  -4125.9848    
  43670000  -4040.0229    
  43671000  -4217.7389    
  43672000  -4149.2112    
  43673000  -4216.1297    
  43674000  -4202.5652    
  43675000  -4245.9767    
  43676000  -4228.6998    
  43677000  -4052.8524    
  43678000  -4119.4344    
  43679000  -4132.3917    
  43680000  -4127.9008    
  43681000  -4116.253     
  43682000  -4077.501     
  43683000  -4111.9891    
  43684000  -4099.3073    
  43685000  -4070.0026    
  43686000  -4105.0261    
  43687000  -4120.5341    
  43688000  -4136.1419    
  43689000  -4179.2052    
  43690000  -4150.8207    
  43691000  -4119.3916    
  43692000  -4186.2137    
  43693000  -4151.4617    
  43694000  -4030.1428    
  43695000  -4114.4199    
  43696000  -4149.3715    
  43697000  -4199.8243    
  43698000  -4189.4367    
  43699000  -4175.9392    
  43700000  -4201.34      
  43701000  -4231.1596    
  43702000  -4263.3459    
  43703000  -4202.3449    
  43704000  -4105.3842    
  43705000  -4178.1808    
  43706000  -4077.9696    
  43707000  -4060.0858    
  43708000  -4044.3176    
  43709000  -4087.2803    
  43710000  -4122.952     
  43711000  -4136.9487    
  43712000  -4160.9428    
  43713000  -4180.2015    
  43714000  -4067.063     
  43715000  -4097.0252    
  43716000  -4271.0803    
  43717000  -4057.1883    
  43718000  -4148.5259    
  43719000  -4115.2642    
  43720000  -4077.0456    
  43721000  -4126.612     
  43722000  -4035.5406    
  43723000  -4170.8135    
  43724000  -4169.1855    
  43725000  -4153.8111    
  43726000  -4125.4994    
  43727000  -4119.3431    
  43728000  -4227.1741    
  43729000  -4192.7114    
  43730000  -4131.1394    
  43731000  -4204.4349    
  43732000  -4124.4834    
  43733000  -4083.5123    
  43734000  -4132.4083    
  43735000  -4104.8165    
  43736000  -4018.1104    
  43737000  -4113.0036    
  43738000  -4043.8687    
  43739000  -3985.4067    
  43740000  -4065.8346    
  43741000  -4095.2365    
  43742000  -4214.6063    
  43743000  -4158.9374    
  43744000  -4291.3375    
  43745000  -4174.9522    
  43746000  -4154.388     
  43747000  -4136.6368    
  43748000  -4183.615     
  43749000  -4090.452     
  43750000  -4161.593     
  43751000  -4260.1577    
  43752000  -4167.0478    
  43753000  -4174.5852    
  43754000  -4113.7639    
  43755000  -4155.9374    
  43756000  -4199.8624    
  43757000  -4196.7795    
  43758000  -4164.5379    
  43759000  -4145.6757    
  43760000  -4149.9404    
  43761000  -4100.4524    
  43762000  -4181.2148    
  43763000  -4143.8595    
  43764000  -4131.1253    
  43765000  -4124.6894    
  43766000  -4120.9178    
  43767000  -4124.434     
  43768000  -4099.8616    
  43769000  -4075.599     
  43770000  -4100.1285    
  43771000  -4024.3147    
  43772000  -4084.3076    
  43773000  -4006.8427    
  43774000  -4033.8362    
  43775000  -4050.3575    
  43776000  -4065.0703    
  43777000  -4107.9564    
  43778000  -4116.3842    
  43779000  -4177.0627    
  43780000  -4197.173     
  43781000  -4173.7971    
  43782000  -4212.8147    
  43783000  -4339.9452    
  43784000  -4139.0084    
  43785000  -4257.8606    
  43786000  -4179.0407    
  43787000  -4248.1693    
  43788000  -4301.935     
  43789000  -4160.7947    
  43790000  -4314.5468    
  43791000  -4278.9478    
  43792000  -4249.3638    
  43793000  -4278.0567    
  43794000  -4176.1404    
  43795000  -4112.801     
  43796000  -4097.408     
  43797000  -4060.7783    
  43798000  -4091.1614    
  43799000  -4009.3196    
  43800000  -3937.3867    
  43801000  -3977.8203    
  43802000  -4034.979     
  43803000  -4050.9497    
  43804000  -3957.6527    
  43805000  -3977.7565    
  43806000  -4039.5865    
  43807000  -4016.4276    
  43808000  -3910.5941    
  43809000  -4037.8769    
  43810000  -4023.1932    
  43811000  -4005.2161    
  43812000  -3970.4491    
  43813000  -4054.7718    
  43814000  -4140.1911    
  43815000  -4133.8061    
  43816000  -3994.0969    
  43817000  -4097.0009    
  43818000  -3999.1507    
  43819000  -4008.8654    
  43820000  -4037.6741    
  43821000  -4024.9254    
  43822000  -4046.1557    
  43823000  -4120.5071    
  43824000  -4082.7676    
  43825000  -4060.4939    
  43826000  -4118.581     
  43827000  -4086.8095    
  43828000  -4156.5493    
  43829000  -4119.1351    
  43830000  -4126.2223    
  43831000  -4108.4529    
  43832000  -4132.9414    
  43833000  -4112.6255    
  43834000  -4063.4409    
  43835000  -4015.7665    
  43836000  -4049.8268    
  43837000  -4058.7839    
  43838000  -4176.7369    
  43839000  -4041.3439    
  43840000  -4102.0896    
  43841000  -4181.6794    
  43842000  -4219.3434    
  43843000  -4124.2186    
  43844000  -4131.0491    
  43845000  -4114.0202    
  43846000  -4056.1186    
  43847000  -4094.7163    
  43848000  -4099.44      
  43849000  -4005.2629    
  43850000  -4076.9222    
  43851000  -4133.6927    
  43852000  -4042.9618    
  43853000  -4010.7576    
  43854000  -4011.1574    
  43855000  -4045.343     
  43856000  -4039.6451    
  43857000  -3948.4368    
  43858000  -4052.3625    
  43859000  -4026.8192    
  43860000  -3968.6194    
  43861000  -4079.0093    
  43862000  -4065.5206    
  43863000  -4120.7212    
  43864000  -4050.7494    
  43865000  -4029.6511    
  43866000  -4112.3756    
  43867000  -4090.7508    
  43868000  -4029.6019    
  43869000  -4014.3038    
  43870000  -4054.406     
  43871000  -4156.9942    
  43872000  -4147.0293    
  43873000  -4121.5274    
  43874000  -4187.1206    
  43875000  -4073.9677    
  43876000  -4146.5264    
  43877000  -4086.6102    
  43878000  -4164.736     
  43879000  -4125.5617    
  43880000  -4152.4371    
  43881000  -4128.1539    
  43882000  -4181.1031    
  43883000  -4209.4723    
  43884000  -4183.3184    
  43885000  -4153.8311    
  43886000  -4178.7382    
  43887000  -4081.2398    
  43888000  -4195.9841    
  43889000  -4178.9881    
  43890000  -4206.017     
  43891000  -4044.8543    
  43892000  -4143.6367    
  43893000  -4187.9542    
  43894000  -4167.3547    
  43895000  -4089.642     
  43896000  -4085.541     
  43897000  -3992.8448    
  43898000  -4016.5409    
  43899000  -4048.4815    
  43900000  -4078.8471    
  43901000  -4153.0185    
  43902000  -4162.0166    
  43903000  -4168.676     
  43904000  -4082.655     
  43905000  -4168.4046    
  43906000  -4152.8988    
  43907000  -4229.494     
  43908000  -4182.7528    
  43909000  -4184.4766    
  43910000  -4182.3052    
  43911000  -4182.1595    
  43912000  -4236.2723    
  43913000  -4177.5584    
  43914000  -4047.991     
  43915000  -4088.0678    
  43916000  -4094.9491    
  43917000  -4041.8425    
  43918000  -4032.2543    
  43919000  -4095.0179    
  43920000  -4083.9156    
  43921000  -4207.4534    
  43922000  -4109.6252    
  43923000  -4071.9414    
  43924000  -4114.6829    
  43925000  -3994.7089    
  43926000  -4066.1826    
  43927000  -4027.1769    
  43928000  -4123.8289    
  43929000  -3953.838     
  43930000  -4101.934     
  43931000  -4021.2663    
  43932000  -4037.6469    
  43933000  -3921.1136    
  43934000  -3985.1708    
  43935000  -4029.3343    
  43936000  -3971.5733    
  43937000  -4117.3121    
  43938000  -4102.9655    
  43939000  -4065.7465    
  43940000  -4156.7559    
  43941000  -4111.7792    
  43942000  -4224.0926    
  43943000  -4081.0424    
  43944000  -4252.9037    
  43945000  -4125.2835    
  43946000  -4256.2771    
  43947000  -4086.7097    
  43948000  -4161.3067    
  43949000  -4203.6927    
  43950000  -4210.0787    
  43951000  -4133.9177    
  43952000  -4193.8719    
  43953000  -4189.0925    
  43954000  -4208.0951    
  43955000  -4225.8645    
  43956000  -4192.4922    
  43957000  -4275.8083    
  43958000  -4255.6297    
  43959000  -4211.0117    
  43960000  -4259.7604    
  43961000  -4189.5175    
  43962000  -4203.5052    
  43963000  -4240.2676    
  43964000  -4365.3269    
  43965000  -4176.1938    
  43966000  -4236.7094    
  43967000  -4316.2456    
  43968000  -4266.1032    
  43969000  -4152.4474    
  43970000  -4123.2028    
  43971000  -4241.2257    
  43972000  -4143.2946    
  43973000  -4081.7894    
  43974000  -4165.9575    
  43975000  -4090.5581    
  43976000  -4293.1021    
  43977000  -4190.8645    
  43978000  -4206.1486    
  43979000  -4230.9715    
  43980000  -4282.4135    
  43981000  -4170.79      
  43982000  -4131.4618    
  43983000  -4224.3771    
  43984000  -4214.6568    
  43985000  -4229.8017    
  43986000  -4227.5021    
  43987000  -4217.5812    
  43988000  -4219.2948    
  43989000  -4145.3176    
  43990000  -4198.6992    
  43991000  -4261.2554    
  43992000  -4179.0005    
  43993000  -4261.0152    
  43994000  -4261.3804    
  43995000  -4259.9878    
  43996000  -4358.6467    
  43997000  -4291.6351    
  43998000  -4353.6115    
  43999000  -4320.8575    
  44000000  -4278.1774    
  44001000  -4242.8514    
  44002000  -4243.7099    
  44003000  -4272.4862    
  44004000  -4233.6868    
  44005000  -4161.7372    
  44006000  -4346.6088    
  44007000  -4281.4611    
  44008000  -4258.0159    
  44009000  -4245.3817    
  44010000  -4321.4287    
  44011000  -4273.4439    
  44012000  -4305.6505    
  44013000  -4191.4711    
  44014000  -4286.3705    
  44015000  -4226.899     
  44016000  -4350.6826    
  44017000  -4299.4837    
  44018000  -4314.9642    
  44019000  -4300.0775    
  44020000  -4231.3902    
  44021000  -4252.6948    
  44022000  -4270.2579    
  44023000  -4188.9317    
  44024000  -4345.3063    
  44025000  -4283.5159    
  44026000  -4225.8042    
  44027000  -4175.9519    
  44028000  -4258.7283    
  44029000  -4288.3483    
  44030000  -4199.807     
  44031000  -4191.032     
  44032000  -4232.1725    
  44033000  -4215.9843    
  44034000  -4212.8096    
  44035000  -4165.6882    
  44036000  -4172.7831    
  44037000  -4132.6779    
  44038000  -4166.3127    
  44039000  -4201.3407    
  44040000  -4176.0424    
  44041000  -4164.0587    
  44042000  -4131.6227    
  44043000  -4247.5291    
  44044000  -4226.9226    
  44045000  -4210.5889    
  44046000  -4170.4641    
  44047000  -4201.2106    
  44048000  -4212.0932    
  44049000  -4197.9836    
  44050000  -4219.9404    
  44051000  -4057.7175    
  44052000  -4141.2595    
  44053000  -4161.0757    
  44054000  -4180.5196    
  44055000  -4285.9317    
  44056000  -4157.8995    
  44057000  -4309.9054    
  44058000  -4253.6912    
  44059000  -4271.2654    
  44060000  -4255.1544    
  44061000  -4297.938     
  44062000  -4262.7683    
  44063000  -4401.4738    
  44064000  -4260.318     
  44065000  -4364.1075    
  44066000  -4335.7048    
  44067000  -4437.2874    
  44068000  -4333.5603    
  44069000  -4362.8439    
  44070000  -4346.1918    
  44071000  -4304.7509    
  44072000  -4337.9217    
  44073000  -4358.6653    
  44074000  -4311.0801    
  44075000  -4387.2826    
  44076000  -4345.1058    
  44077000  -4244.3825    
  44078000  -4427.3801    
  44079000  -4328.6678    
  44080000  -4449.0264    
  44081000  -4368.5336    
  44082000  -4381.6891    
  44083000  -4326.6985    
  44084000  -4177.3041    
  44085000  -4394.2954    
  44086000  -4227.4665    
  44087000  -4359.1377    
  44088000  -4351.9146    
  44089000  -4381.484     
  44090000  -4371.3808    
  44091000  -4368.3706    
  44092000  -4372.7973    
  44093000  -4506.1141    
  44094000  -4351.6197    
  44095000  -4469.4453    
  44096000  -4439.3082    
  44097000  -4454.2345    
  44098000  -4326.5495    
  44099000  -4338.9992    
  44100000  -4424.7591    
  44101000  -4389.8145    
  44102000  -4281.8052    
  44103000  -4364.4824    
  44104000  -4422.9691    
  44105000  -4355.0488    
  44106000  -4283.438     
  44107000  -4367.5094    
  44108000  -4307.1903    
  44109000  -4246.8569    
  44110000  -4294.8501    
  44111000  -4251.0084    
  44112000  -4149.3539    
  44113000  -4134.4896    
  44114000  -4226.8624    
  44115000  -4164.1476    
  44116000  -4079.5834    
  44117000  -4090.6615    
  44118000  -4136.6465    
  44119000  -4090.0201    
  44120000  -4060.8724    
  44121000  -4014.0288    
  44122000  -4060.6728    
  44123000  -4127.1985    
  44124000  -4108.3922    
  44125000  -4136.093     
  44126000  -4004.7977    
  44127000  -4119.3691    
  44128000  -4117.794     
  44129000  -3999.1059    
  44130000  -4068.6887    
  44131000  -4103.0842    
  44132000  -4024.2524    
  44133000  -4150.9746    
  44134000  -4148.4796    
  44135000  -4008.6778    
  44136000  -3975.7998    
  44137000  -4155.8057    
  44138000  -4062.3224    
  44139000  -4124.9386    
  44140000  -4053.2654    
  44141000  -4194.5588    
  44142000  -4220.607     
  44143000  -4173.9327    
  44144000  -4134.0289    
  44145000  -4261.8557    
  44146000  -4122.5719    
  44147000  -4126.8868    
  44148000  -4217.0425    
  44149000  -4215.5081    
  44150000  -4309.86      
  44151000  -4134.9333    
  44152000  -4208.4161    
  44153000  -4159.0899    
  44154000  -4163.0533    
  44155000  -4154.3048    
  44156000  -4271.4966    
  44157000  -4141.5313    
  44158000  -4202.3563    
  44159000  -4197.129     
  44160000  -4189.3766    
  44161000  -4174.8547    
  44162000  -4129.844     
  44163000  -4234.07      
  44164000  -4112.213     
  44165000  -4218.6288    
  44166000  -4141.9468    
  44167000  -4258.9629    
  44168000  -4156.6485    
  44169000  -4132.1723    
  44170000  -4242.8256    
  44171000  -4174.6151    
  44172000  -4179.6464    
  44173000  -4092.7379    
  44174000  -4254.3983    
  44175000  -4303.9856    
  44176000  -4220.9373    
  44177000  -4269.7491    
  44178000  -4253.3674    
  44179000  -4232.4683    
  44180000  -4312.8359    
  44181000  -4277.5874    
  44182000  -4239.3824    
  44183000  -4216.7397    
  44184000  -4289.7583    
  44185000  -4265.6008    
  44186000  -4260.3965    
  44187000  -4184.0712    
  44188000  -4247.3885    
  44189000  -4295.0558    
  44190000  -4278.2793    
  44191000  -4267.8549    
  44192000  -4295.1024    
  44193000  -4191.5696    
  44194000  -4249.2351    
  44195000  -4237.7047    
  44196000  -4239.0881    
  44197000  -4296.8402    
  44198000  -4220.4204    
  44199000  -4310.6423    
  44200000  -4164.9203    
  44201000  -4123.6164    
  44202000  -4149.6899    
  44203000  -4276.2585    
  44204000  -4121.9566    
  44205000  -4153.1485    
  44206000  -4274.3919    
  44207000  -4235.2438    
  44208000  -4314.9145    
  44209000  -4243.3373    
  44210000  -4245.6195    
  44211000  -4230.7933    
  44212000  -4320.3556    
  44213000  -4219.9658    
  44214000  -4247.2264    
  44215000  -4261.4108    
  44216000  -4327.0852    
  44217000  -4278.291     
  44218000  -4272.0936    
  44219000  -4277.3694    
  44220000  -4235.3527    
  44221000  -4280.2667    
  44222000  -4250.8393    
  44223000  -4181.9244    
  44224000  -4258.9415    
  44225000  -4225.9892    
  44226000  -4145.4737    
  44227000  -4263.1848    
  44228000  -4236.4208    
  44229000  -4182.5938    
  44230000  -4226.9689    
  44231000  -4189.2057    
  44232000  -4151.6839    
  44233000  -4174.884     
  44234000  -4208.2427    
  44235000  -4176.5208    
  44236000  -4151.3079    
  44237000  -4243.1011    
  44238000  -4262.7286    
  44239000  -4200.9328    
  44240000  -4193.0104    
  44241000  -4255.5238    
  44242000  -4203.6401    
  44243000  -4283.8719    
  44244000  -4361.0159    
  44245000  -4172.3364    
  44246000  -4207.2591    
  44247000  -4102.276     
  44248000  -4101.035     
  44249000  -4148.0818    
  44250000  -4196.8262    
  44251000  -4244.4709    
  44252000  -4208.7345    
  44253000  -4176.5109    
  44254000  -4189.3795    
  44255000  -4173.5273    
  44256000  -4169.4442    
  44257000  -4235.2195    
  44258000  -4161.007     
  44259000  -4203.6075    
  44260000  -4056.7572    
  44261000  -4145.0777    
  44262000  -4273.4136    
  44263000  -4307.1354    
  44264000  -4314.9538    
  44265000  -4274.2755    
  44266000  -4202.3153    
  44267000  -4277.4178    
  44268000  -4201.5577    
  44269000  -4317.1042    
  44270000  -4300.4434    
  44271000  -4256.0234    
  44272000  -4363.8429    
  44273000  -4224.4455    
  44274000  -4194.2855    
  44275000  -4152.6477    
  44276000  -4137.8094    
  44277000  -4208.3276    
  44278000  -4155.0054    
  44279000  -4130.3003    
  44280000  -4123.2308    
  44281000  -4082.8106    
  44282000  -4198.9164    
  44283000  -4252.4212    
  44284000  -4188.0117    
  44285000  -4163.2512    
  44286000  -4270.1102    
  44287000  -4060.081     
  44288000  -4153.8728    
  44289000  -4044.7632    
  44290000  -4001.4723    
  44291000  -4028.607     
  44292000  -4043.2429    
  44293000  -3970.946     
  44294000  -4026.0245    
  44295000  -4009.2905    
  44296000  -4037.8246    
  44297000  -4059.6961    
  44298000  -4019.9294    
  44299000  -4027.9999    
  44300000  -4073.8056    
  44301000  -3913.7839    
  44302000  -3948.247     
  44303000  -3977.336     
  44304000  -3970.1182    
  44305000  -3890.6904    
  44306000  -3945.9038    
  44307000  -4027.1219    
  44308000  -4053.8127    
  44309000  -4080.6718    
  44310000  -3981.2738    
  44311000  -4025.4668    
  44312000  -3895.6489    
  44313000  -3967.0772    
  44314000  -3931.8076    
  44315000  -3921.1798    
  44316000  -3881.9532    
  44317000  -3981.0728    
  44318000  -3977.953     
  44319000  -4029.6444    
  44320000  -4046.46      
  44321000  -3962.3302    
  44322000  -4114.8341    
  44323000  -3922.9061    
  44324000  -3910.9616    
  44325000  -4037.6799    
  44326000  -4049.3816    
  44327000  -3966.4254    
  44328000  -4057.9954    
  44329000  -3974.2023    
  44330000  -4055.029     
  44331000  -3978.8048    
  44332000  -4115.9742    
  44333000  -4028.0509    
  44334000  -4016.2637    
  44335000  -4035.282     
  44336000  -4030.9503    
  44337000  -4032.2494    
  44338000  -4052.8823    
  44339000  -4080.4821    
  44340000  -4125.7189    
  44341000  -4120.9792    
  44342000  -4000.6364    
  44343000  -4075.4684    
  44344000  -4033.8104    
  44345000  -4102.0496    
  44346000  -4066.0866    
  44347000  -3902.473     
  44348000  -4032.3242    
  44349000  -3975.9423    
  44350000  -4096.0946    
  44351000  -3995.4328    
  44352000  -4055.891     
  44353000  -4034.0729    
  44354000  -4032.786     
  44355000  -4117.5255    
  44356000  -4068.0376    
  44357000  -4052.2185    
  44358000  -4082.0073    
  44359000  -4046.8219    
  44360000  -4140.7878    
  44361000  -4121.4135    
  44362000  -4051.9062    
  44363000  -4160.0164    
  44364000  -4108.9144    
  44365000  -4116.3843    
  44366000  -4098.499     
  44367000  -4114.5918    
  44368000  -4139.2666    
  44369000  -4180.5149    
  44370000  -4150.6347    
  44371000  -4056.2251    
  44372000  -3925.8875    
  44373000  -4000.1068    
  44374000  -4000.2513    
  44375000  -3920.4205    
  44376000  -3975.1856    
  44377000  -3892.4881    
  44378000  -4017.8783    
  44379000  -4042.03      
  44380000  -4070.2906    
  44381000  -4081.295     
  44382000  -4116.9027    
  44383000  -4012.7686    
  44384000  -3987.4117    
  44385000  -4050.7716    
  44386000  -4120.7824    
  44387000  -4047.31      
  44388000  -4124.6527    
  44389000  -4080.8457    
  44390000  -4084.0996    
  44391000  -4033.6904    
  44392000  -4019.3504    
  44393000  -4126.5604    
  44394000  -4050.5413    
  44395000  -4038.2072    
  44396000  -3982.3227    
  44397000  -4094.1197    
  44398000  -4069.0964    
  44399000  -3991.8545    
  44400000  -4164.6936    
  44401000  -4107.5879    
  44402000  -4179.8621    
  44403000  -4145.613     
  44404000  -4124.5248    
  44405000  -4090.222     
  44406000  -4111.4229    
  44407000  -4113.9532    
  44408000  -4114.5161    
  44409000  -4087.5139    
  44410000  -4092.2001    
  44411000  -4100.9594    
  44412000  -4150.2614    
  44413000  -4113.0592    
  44414000  -4080.6574    
  44415000  -4204.6286    
  44416000  -4177.8375    
  44417000  -4137.24      
  44418000  -4127.1892    
  44419000  -4177.3856    
  44420000  -4075.1455    
  44421000  -4117.2069    
  44422000  -4173.2598    
  44423000  -4195.2911    
  44424000  -4118.3112    
  44425000  -4116.6079    
  44426000  -4200.859     
  44427000  -4238.5222    
  44428000  -4184.777     
  44429000  -4174.0766    
  44430000  -4043.7538    
  44431000  -4075.1983    
  44432000  -4197.5143    
  44433000  -4149.9174    
  44434000  -4033.4931    
  44435000  -4154.1554    
  44436000  -4044.2581    
  44437000  -4145.2587    
  44438000  -3987.9325    
  44439000  -4095.9333    
  44440000  -4079.5102    
  44441000  -4031.7365    
  44442000  -4139.1593    
  44443000  -4176.2477    
  44444000  -4198.3402    
  44445000  -4100.9294    
  44446000  -4100.6307    
  44447000  -4083.1319    
  44448000  -4154.3844    
  44449000  -4096.1426    
  44450000  -4030.893     
  44451000  -4076.6426    
  44452000  -4072.3199    
  44453000  -4094.4195    
  44454000  -4123.7641    
  44455000  -4082.4071    
  44456000  -4054.083     
  44457000  -4089.4424    
  44458000  -4138.5151    
  44459000  -4112.4011    
  44460000  -4131.3801    
  44461000  -4116.2402    
  44462000  -4033.9229    
  44463000  -4091.8002    
  44464000  -4051.4868    
  44465000  -3994.2545    
  44466000  -3988.7598    
  44467000  -4071.8861    
  44468000  -4015.9414    
  44469000  -3994.3971    
  44470000  -4024.886     
  44471000  -4040.6374    
  44472000  -3977.5779    
  44473000  -4013.8916    
  44474000  -4073.3884    
  44475000  -4063.2935    
  44476000  -4063.3531    
  44477000  -4023.7578    
  44478000  -4046.2117    
  44479000  -4062.1331    
  44480000  -4110.9791    
  44481000  -4056.7121    
  44482000  -4071.5251    
  44483000  -4101.5128    
  44484000  -4089.7587    
  44485000  -4068.1166    
  44486000  -4147.6838    
  44487000  -4095.6792    
  44488000  -4186.9899    
  44489000  -4197.2953    
  44490000  -4182.046     
  44491000  -4122.3427    
  44492000  -4270.8727    
  44493000  -4176.2802    
  44494000  -4308.5728    
  44495000  -4228.8906    
  44496000  -4258.5543    
  44497000  -4262.1178    
  44498000  -4182.9586    
  44499000  -4270.3631    
  44500000  -4246.9448    
  44501000  -4241.5089    
  44502000  -4159.2797    
  44503000  -4266.0192    
  44504000  -4299.3904    
  44505000  -4120.0153    
  44506000  -4200.1613    
  44507000  -4183.7371    
  44508000  -4177.4211    
  44509000  -4212.0875    
  44510000  -4032.2071    
  44511000  -4187.7871    
  44512000  -4053.4378    
  44513000  -4102.2919    
  44514000  -4165.1211    
  44515000  -4164.7172    
  44516000  -4151.1086    
  44517000  -4107.8267    
  44518000  -4063.9882    
  44519000  -4042.4221    
  44520000  -4123.2422    
  44521000  -4157.1398    
  44522000  -4118.2154    
  44523000  -4065.2219    
  44524000  -3959.7277    
  44525000  -4045.9174    
  44526000  -4149.9073    
  44527000  -4024.4706    
  44528000  -4095.5333    
  44529000  -4075.8567    
  44530000  -4081.4005    
  44531000  -4039.3659    
  44532000  -4055.6867    
  44533000  -4138.711     
  44534000  -4059.9333    
  44535000  -4125.0271    
  44536000  -4083.0519    
  44537000  -4045.6288    
  44538000  -4028.2857    
  44539000  -3987.0494    
  44540000  -3962.1117    
  44541000  -3941.7914    
  44542000  -3908.5952    
  44543000  -3945.4718    
  44544000  -4076.1787    
  44545000  -3940.0824    
  44546000  -4057.3606    
  44547000  -4010.8067    
  44548000  -3944.1053    
  44549000  -3953.4441    
  44550000  -3981.7107    
  44551000  -3925.3089    
  44552000  -3897.1319    
  44553000  -4063.1677    
  44554000  -4053.6817    
  44555000  -4015.8524    
  44556000  -4035.4252    
  44557000  -4013.0073    
  44558000  -4002.0969    
  44559000  -3992.6103    
  44560000  -4025.5874    
  44561000  -4016.6309    
  44562000  -4010.1251    
  44563000  -4101.067     
  44564000  -4071.0457    
  44565000  -4101.5404    
  44566000  -4172.1579    
  44567000  -4266.5751    
  44568000  -4186.3416    
  44569000  -4306.1257    
  44570000  -4162.6564    
  44571000  -4019.6535    
  44572000  -4176.1122    
  44573000  -4102.3934    
  44574000  -4000.7226    
  44575000  -4085.1422    
  44576000  -4018.2256    
  44577000  -3993.1477    
  44578000  -3958.2237    
  44579000  -4065.0344    
  44580000  -4005.3998    
  44581000  -4011.347     
  44582000  -3996.7151    
  44583000  -3918.5399    
  44584000  -4048.3479    
  44585000  -3985.18      
  44586000  -3974.6183    
  44587000  -3997.6735    
  44588000  -4073.0271    
  44589000  -4011.4738    
  44590000  -3871.6743    
  44591000  -3954.5041    
  44592000  -3972.371     
  44593000  -3884.41      
  44594000  -3965.0435    
  44595000  -3886.9969    
  44596000  -3889.3868    
  44597000  -3906.6543    
  44598000  -3948.3356    
  44599000  -3862.1048    
  44600000  -3900.7524    
  44601000  -3942.4725    
  44602000  -3936.5235    
  44603000  -3821.2034    
  44604000  -3937.1644    
  44605000  -3865.3339    
  44606000  -3888.7068    
  44607000  -3967.0833    
  44608000  -3995.7889    
  44609000  -4040.5061    
  44610000  -3958.6772    
  44611000  -3950.2851    
  44612000  -3946.8294    
  44613000  -3980.387     
  44614000  -4021.7369    
  44615000  -3916.6796    
  44616000  -3999.12      
  44617000  -3848.8244    
  44618000  -3914.1877    
  44619000  -3839.0138    
  44620000  -3856.7835    
  44621000  -3829.6056    
  44622000  -3852.1617    
  44623000  -3917.8539    
  44624000  -3871.5417    
  44625000  -3849.5505    
  44626000  -3885.1271    
  44627000  -3852.7867    
  44628000  -3853.0349    
  44629000  -3913.6808    
  44630000  -3899.292     
  44631000  -3976.2762    
  44632000  -4067.5582    
  44633000  -4097.9957    
  44634000  -3972.94      
  44635000  -3936.7937    
  44636000  -4054.6207    
  44637000  -3954.2171    
  44638000  -3993.2326    
  44639000  -3995.592     
  44640000  -3998.9724    
  44641000  -3979.9151    
  44642000  -4012.3596    
  44643000  -4022.4941    
  44644000  -3962.8672    
  44645000  -4026.7109    
  44646000  -4028.029     
  44647000  -3916.2669    
  44648000  -4022.8692    
  44649000  -3985.9872    
  44650000  -3990.8936    
  44651000  -4049.5965    
  44652000  -3954.9556    
  44653000  -3974.6019    
  44654000  -3945.3454    
  44655000  -3971.1774    
  44656000  -4061.7542    
  44657000  -4044.2308    
  44658000  -3968.4358    
  44659000  -4034.159     
  44660000  -3958.0804    
  44661000  -3918.5323    
  44662000  -4058.3864    
  44663000  -4086.1515    
  44664000  -4041.5302    
  44665000  -4056.9968    
  44666000  -4014.6467    
  44667000  -4086.7091    
  44668000  -4093.6751    
  44669000  -4046.3757    
  44670000  -3989.2393    
  44671000  -4026.282     
  44672000  -4000.7998    
  44673000  -4097.555     
  44674000  -4012.5647    
  44675000  -4057.6298    
  44676000  -3995.9468    
  44677000  -4017.4111    
  44678000  -3950.9403    
  44679000  -4014.9939    
  44680000  -3937.1527    
  44681000  -4110.1545    
  44682000  -3988.6534    
  44683000  -4051.5695    
  44684000  -4080.2107    
  44685000  -4023.8001    
  44686000  -4139.8649    
  44687000  -4130.9955    
  44688000  -4154.692     
  44689000  -4066.2364    
  44690000  -4175.7561    
  44691000  -4047.1198    
  44692000  -4065.4075    
  44693000  -4161.9607    
  44694000  -4109.7672    
  44695000  -4098.395     
  44696000  -4045.5183    
  44697000  -3955.4499    
  44698000  -4085.6036    
  44699000  -4103.979     
  44700000  -4219.274     
  44701000  -4160.9625    
  44702000  -4062.8406    
  44703000  -4150.7994    
  44704000  -4026.767     
  44705000  -4195.8858    
  44706000  -4102.5124    
  44707000  -4039.69      
  44708000  -4168.2792    
  44709000  -4167.7233    
  44710000  -4086.2212    
  44711000  -4036.6182    
  44712000  -4097.4866    
  44713000  -4144.4559    
  44714000  -4164.4784    
  44715000  -4189.1082    
  44716000  -4146.7134    
  44717000  -4111.5868    
  44718000  -4181.3333    
  44719000  -4188.6567    
  44720000  -4223.9661    
  44721000  -4080.1251    
  44722000  -4097.9134    
  44723000  -4161.1421    
  44724000  -4098.3067    
  44725000  -4085.0562    
  44726000  -4109.3164    
  44727000  -4040.1475    
  44728000  -4064.5499    
  44729000  -4066.3521    
  44730000  -4125.1081    
  44731000  -4110.197     
  44732000  -4034.3811    
  44733000  -4094.9281    
  44734000  -4138.3023    
  44735000  -4075.7589    
  44736000  -4122.7659    
  44737000  -4210.9186    
  44738000  -4130.3976    
  44739000  -4110.183     
  44740000  -4149.3734    
  44741000  -4160.9616    
  44742000  -4159.5069    
  44743000  -4080.5869    
  44744000  -4094.8308    
  44745000  -3999.9027    
  44746000  -4015.2275    
  44747000  -4039.9806    
  44748000  -4045.6071    
  44749000  -4013.0585    
  44750000  -4060.2735    
  44751000  -4044.9721    
  44752000  -4038.2531    
  44753000  -4122.3712    
  44754000  -4015.9906    
  44755000  -4039.26      
  44756000  -4005.0117    
  44757000  -4050.8725    
  44758000  -4052.7577    
  44759000  -4120.1845    
  44760000  -4016.5037    
  44761000  -3998.2108    
  44762000  -3901.3049    
  44763000  -4011.01      
  44764000  -4007.2296    
  44765000  -4088.8879    
  44766000  -4012.3737    
  44767000  -3978.7897    
  44768000  -4060.0153    
  44769000  -4093.4174    
  44770000  -4009.4456    
  44771000  -4075.2269    
  44772000  -4045.5516    
  44773000  -4101.8958    
  44774000  -4044.5149    
  44775000  -4036.109     
  44776000  -4099.4279    
  44777000  -4064.1056    
  44778000  -4088.8921    
  44779000  -4090.3029    
  44780000  -4013.6199    
  44781000  -4043.3924    
  44782000  -4121.435     
  44783000  -4090.881     
  44784000  -4080.2291    
  44785000  -4014.3106    
  44786000  -4083.3285    
  44787000  -4064.0362    
  44788000  -4154.0846    
  44789000  -4170.7928    
  44790000  -4158.5867    
  44791000  -4218.2438    
  44792000  -4184.8397    
  44793000  -4094.2561    
  44794000  -4198.458     
  44795000  -4131.8445    
  44796000  -4101.6823    
  44797000  -4109.6199    
  44798000  -4137.9736    
  44799000  -4039.7476    
  44800000  -4165.3604    
  44801000  -4061.4094    
  44802000  -4081.7381    
  44803000  -4088.9677    
  44804000  -3989.6883    
  44805000  -3963.4436    
  44806000  -3959.5389    
  44807000  -3950.0545    
  44808000  -4017.5615    
  44809000  -3979.0282    
  44810000  -3975.8443    
  44811000  -3966.2041    
  44812000  -3970.0086    
  44813000  -4060.9341    
  44814000  -4009.4553    
  44815000  -3974.4891    
  44816000  -4029.081     
  44817000  -4049.2036    
  44818000  -4057.9373    
  44819000  -4089.8395    
  44820000  -4119.9132    
  44821000  -3971.2842    
  44822000  -4070.1246    
  44823000  -3978.1669    
  44824000  -3998.1128    
  44825000  -3935.4918    
  44826000  -4079.2157    
  44827000  -4011.2816    
  44828000  -4068.5923    
  44829000  -4088.4598    
  44830000  -4043.6377    
  44831000  -4109.7862    
  44832000  -4107.4124    
  44833000  -4130.9911    
  44834000  -4122.0713    
  44835000  -4160.3017    
  44836000  -4063.7574    
  44837000  -4140.4026    
  44838000  -4117.1203    
  44839000  -4163.0508    
  44840000  -4103.2095    
  44841000  -4187.9484    
  44842000  -4140.2002    
  44843000  -4129.4878    
  44844000  -4061.337     
  44845000  -4090.3005    
  44846000  -4080.4062    
  44847000  -4224.3818    
  44848000  -4167.8658    
  44849000  -4148.8037    
  44850000  -4164.8045    
  44851000  -4142.7858    
  44852000  -4224.5356    
  44853000  -4167.9028    
  44854000  -4139.889     
  44855000  -4149.9819    
  44856000  -4057.9303    
  44857000  -4078.5714    
  44858000  -4082.4128    
  44859000  -4076.3796    
  44860000  -4165.7838    
  44861000  -4129.9251    
  44862000  -4126.1931    
  44863000  -4070.6862    
  44864000  -4113.6422    
  44865000  -4148.3999    
  44866000  -4137.8133    
  44867000  -4221.1688    
  44868000  -4144.3211    
  44869000  -4155.1177    
  44870000  -4246.4981    
  44871000  -4180.6972    
  44872000  -4231.8003    
  44873000  -4100.2955    
  44874000  -4164.1782    
  44875000  -4167.2767    
  44876000  -4231.5842    
  44877000  -4176.259     
  44878000  -4179.3101    
  44879000  -4262.1289    
  44880000  -4196.8428    
  44881000  -4122.8064    
  44882000  -4231.1072    
  44883000  -4169.8544    
  44884000  -4164.9674    
  44885000  -4161.8307    
  44886000  -4095.3236    
  44887000  -4142.0407    
  44888000  -4139.2504    
  44889000  -4153.0335    
  44890000  -4216.2288    
  44891000  -4146.0119    
  44892000  -4230.4327    
  44893000  -4135.5807    
  44894000  -4154.147     
  44895000  -4075.3115    
  44896000  -4126.229     
  44897000  -4129.0221    
  44898000  -4151.7011    
  44899000  -4099.853     
  44900000  -4147.5059    
  44901000  -4149.3531    
  44902000  -4098.1228    
  44903000  -3993.4867    
  44904000  -4016.1993    
  44905000  -4046.8982    
  44906000  -4141.7261    
  44907000  -4161.7067    
  44908000  -4098.0428    
  44909000  -4182.1584    
  44910000  -4100.0163    
  44911000  -4100.0651    
  44912000  -4166.5738    
  44913000  -4189.3467    
  44914000  -4224.0554    
  44915000  -4135.3278    
  44916000  -4207.85      
  44917000  -4260.3417    
  44918000  -4288.5934    
  44919000  -4277.6465    
  44920000  -4268.8913    
  44921000  -4157.4844    
  44922000  -4267.572     
  44923000  -4228.377     
  44924000  -4233.5571    
  44925000  -4257.4775    
  44926000  -4220.2604    
  44927000  -4249.2232    
  44928000  -4248.0604    
  44929000  -4213.0995    
  44930000  -4124.6228    
  44931000  -4208.8502    
  44932000  -4119.5385    
  44933000  -4097.2858    
  44934000  -4276.491     
  44935000  -4155.4871    
  44936000  -4154.8558    
  44937000  -4241.8255    
  44938000  -4227.7242    
  44939000  -4218.3435    
  44940000  -4300.043     
  44941000  -4306.2897    
  44942000  -4220.1138    
  44943000  -4292.2047    
  44944000  -4252.3539    
  44945000  -4222.2445    
  44946000  -4249.5661    
  44947000  -4238.6404    
  44948000  -4224.1949    
  44949000  -4177.4372    
  44950000  -4175.2601    
  44951000  -4155.7992    
  44952000  -4183.4454    
  44953000  -4137.6189    
  44954000  -4276.2084    
  44955000  -4222.8622    
  44956000  -4225.8316    
  44957000  -4255.5151    
  44958000  -4219.6784    
  44959000  -4282.2598    
  44960000  -4249.0107    
  44961000  -4226.7474    
  44962000  -4265.9992    
  44963000  -4185.1232    
  44964000  -4086.8577    
  44965000  -4247.4037    
  44966000  -4175.2813    
  44967000  -4277.6401    
  44968000  -4202.3981    
  44969000  -4276.2035    
  44970000  -4265.3762    
  44971000  -4363.6631    
  44972000  -4334.5667    
  44973000  -4355.133     
  44974000  -4261.0391    
  44975000  -4325.2389    
  44976000  -4392.6626    
  44977000  -4327.2323    
  44978000  -4292.2467    
  44979000  -4383.2089    
  44980000  -4292.9598    
  44981000  -4386.2547    
  44982000  -4287.3753    
  44983000  -4282.2083    
  44984000  -4321.3963    
  44985000  -4295.2826    
  44986000  -4127.4693    
  44987000  -4192.4062    
  44988000  -4207.3948    
  44989000  -4184.3004    
  44990000  -4130.7355    
  44991000  -4103.7999    
  44992000  -4164.2691    
  44993000  -4125.8832    
  44994000  -4105.6929    
  44995000  -4020.2861    
  44996000  -4063.5128    
  44997000  -4072.0967    
  44998000  -4129.215     
  44999000  -4126.358     
  45000000  -4102.3235    
  45001000  -4121.2332    
  45002000  -4185.4905    
  45003000  -4233.1122    
  45004000  -4124.619     
  45005000  -4107.7022    
  45006000  -4141.6192    
  45007000  -4127.8452    
  45008000  -4173.9278    
  45009000  -4224.9871    
  45010000  -4137.6813    
  45011000  -4197.551     
  45012000  -4079.0463    
  45013000  -4169.8327    
  45014000  -4199.2452    
  45015000  -4201.4491    
  45016000  -4127.5936    
  45017000  -4174.3399    
  45018000  -4081.3735    
  45019000  -4082.5604    
  45020000  -4154.219     
  45021000  -4229.3625    
  45022000  -4176.94      
  45023000  -4302.321     
  45024000  -4215.3043    
  45025000  -4181.8137    
  45026000  -4222.5376    
  45027000  -4123.3373    
  45028000  -4268.1176    
  45029000  -4197.5298    
  45030000  -4215.0712    
  45031000  -4152.5879    
  45032000  -4091.5974    
  45033000  -4198.3444    
  45034000  -4236.0396    
  45035000  -4243.7031    
  45036000  -4155.9441    
  45037000  -4166.4681    
  45038000  -4128.4712    
  45039000  -4280.0806    
  45040000  -4159.8933    
  45041000  -4145.271     
  45042000  -4166.2973    
  45043000  -4213.1367    
  45044000  -4206.9331    
  45045000  -4170.8354    
  45046000  -4169.5771    
  45047000  -4183.5353    
  45048000  -4159.6197    
  45049000  -4138.3615    
  45050000  -4074.9451    
  45051000  -4168.4712    
  45052000  -4104.7337    
  45053000  -4081.6784    
  45054000  -4157.1402    
  45055000  -4114.2234    
  45056000  -4080.1776    
  45057000  -4070.2427    
  45058000  -4058.1606    
  45059000  -4123.3782    
  45060000  -4037.001     
  45061000  -4026.4896    
  45062000  -3974.9157    
  45063000  -4060.5777    
  45064000  -4053.5747    
  45065000  -4029.7618    
  45066000  -3953.6608    
  45067000  -3946.4472    
  45068000  -3992.7384    
  45069000  -3950.2182    
  45070000  -3953.5896    
  45071000  -3956.3165    
  45072000  -3948.9848    
  45073000  -3966.1917    
  45074000  -4012.1966    
  45075000  -3925.7065    
  45076000  -4139.0645    
  45077000  -4045.1502    
  45078000  -3941.9175    
  45079000  -4088.0475    
  45080000  -4031.8397    
  45081000  -4142.1965    
  45082000  -4109.6488    
  45083000  -4086.3853    
  45084000  -4079.8272    
  45085000  -4111.8279    
  45086000  -4008.6013    
  45087000  -3903.1365    
  45088000  -3985.3678    
  45089000  -4054.0685    
  45090000  -4012.6617    
  45091000  -4076.0698    
  45092000  -4066.7829    
  45093000  -3940.8786    
  45094000  -4181.366     
  45095000  -4046.6261    
  45096000  -4062.2763    
  45097000  -4097.2523    
  45098000  -4177.3181    
  45099000  -4050.1509    
  45100000  -4011.0285    
  45101000  -4078.2007    
  45102000  -4125.1294    
  45103000  -4175.5553    
  45104000  -4153.4701    
  45105000  -4169.4612    
  45106000  -4007.9017    
  45107000  -4105.4214    
  45108000  -4235.5248    
  45109000  -4071.2801    
  45110000  -4218.429     
  45111000  -4200.991     
  45112000  -4193.2059    
  45113000  -4080.1152    
  45114000  -4115.3385    
  45115000  -4181.5105    
  45116000  -4085.7799    
  45117000  -4017.9765    
  45118000  -4070.1193    
  45119000  -4046.5143    
  45120000  -4085.9608    
  45121000  -3971.3065    
  45122000  -4008.6213    
  45123000  -4063.1425    
  45124000  -4161.7896    
  45125000  -4182.4688    
  45126000  -4114.3599    
  45127000  -4051.4226    
  45128000  -4102.239     
  45129000  -4061.3815    
  45130000  -4084.2818    
  45131000  -4096.582     
  45132000  -4024.6468    
  45133000  -4078.5815    
  45134000  -4092.9912    
  45135000  -4132.1597    
  45136000  -4274.8039    
  45137000  -4218.9279    
  45138000  -4174.2245    
  45139000  -4196.865     
  45140000  -4228.4838    
  45141000  -4190.6521    
  45142000  -4211.0782    
  45143000  -4270.9511    
  45144000  -4228.5236    
  45145000  -4168.2198    
  45146000  -4178.6259    
  45147000  -4025.8009    
  45148000  -4106.2251    
  45149000  -4212.0818    
  45150000  -4172.1092    
  45151000  -4203.5551    
  45152000  -4201.6085    
  45153000  -4201.3451    
  45154000  -4262.4966    
  45155000  -4248.9213    
  45156000  -4232.7876    
  45157000  -4297.1076    
  45158000  -4317.2134    
  45159000  -4508.6658    
  45160000  -4295.2179    
  45161000  -4268.0693    
  45162000  -4231.1698    
  45163000  -4255.809     
  45164000  -4239.6941    
  45165000  -4259.9527    
  45166000  -4206.2239    
  45167000  -4233.5169    
  45168000  -4223.2826    
  45169000  -4114.8242    
  45170000  -4218.7049    
  45171000  -4307.7239    
  45172000  -4257.152     
  45173000  -4175.5491    
  45174000  -4199.4413    
  45175000  -4212.8576    
  45176000  -4246.5684    
  45177000  -4138.0111    
  45178000  -4158.8584    
  45179000  -4258.4065    
  45180000  -4168.2859    
  45181000  -4277.6732    
  45182000  -4231.2754    
  45183000  -4301.1104    
  45184000  -4345.5608    
  45185000  -4337.2691    
  45186000  -4259.1149    
  45187000  -4358.5531    
  45188000  -4318.2522    
  45189000  -4330.4575    
  45190000  -4259.2594    
  45191000  -4229.2496    
  45192000  -4295.055     
  45193000  -4267.8562    
  45194000  -4257.7757    
  45195000  -4246.8848    
  45196000  -4263.8148    
  45197000  -4223.7034    
  45198000  -4141.5458    
  45199000  -4203.1898    
  45200000  -4288.9674    
  45201000  -4185.8253    
  45202000  -4220.162     
  45203000  -4210.4463    
  45204000  -4175.0529    
  45205000  -4177.5839    
  45206000  -4285.7066    
  45207000  -4252.5488    
  45208000  -4313.4753    
  45209000  -4225.9023    
  45210000  -4176.9238    
  45211000  -4230.153     
  45212000  -4296.6976    
  45213000  -4235.4662    
  45214000  -4271.9199    
  45215000  -4195.0081    
  45216000  -4130.275     
  45217000  -4134.5232    
  45218000  -4199.8234    
  45219000  -4221.0863    
  45220000  -4123.6157    
  45221000  -4215.2957    
  45222000  -4162.205     
  45223000  -4214.2336    
  45224000  -4157.8055    
  45225000  -4209.2429    
  45226000  -4222.2365    
  45227000  -4184.1082    
  45228000  -4167.1535    
  45229000  -4221.2925    
  45230000  -4227.4288    
  45231000  -4313.8448    
  45232000  -4263.5996    
  45233000  -4325.1398    
  45234000  -4224.0974    
  45235000  -4406.5408    
  45236000  -4362.6824    
  45237000  -4442.451     
  45238000  -4287.8358    
  45239000  -4270.8926    
  45240000  -4146.3563    
  45241000  -4223.5312    
  45242000  -4150.5045    
  45243000  -4284.5426    
  45244000  -4243.7503    
  45245000  -4207.1609    
  45246000  -4237.8704    
  45247000  -4153.6556    
  45248000  -4324.7622    
  45249000  -4243.8845    
  45250000  -4201.5428    
  45251000  -4165.226     
  45252000  -4253.6488    
  45253000  -4248.0578    
  45254000  -4184.4607    
  45255000  -4226.471     
  45256000  -4233.1199    
  45257000  -4197.2182    
  45258000  -4219.8673    
  45259000  -4211.9322    
  45260000  -4193.1353    
  45261000  -4218.1276    
  45262000  -4194.1404    
  45263000  -4153.0297    
  45264000  -4257.9587    
  45265000  -4239.9124    
  45266000  -4184.0794    
  45267000  -4220.421     
  45268000  -4206.7148    
  45269000  -4135.8136    
  45270000  -4254.5603    
  45271000  -4217.7865    
  45272000  -4236.2866    
  45273000  -4214.6953    
  45274000  -4061.8883    
  45275000  -4080.7095    
  45276000  -4218.9573    
  45277000  -4161.8215    
  45278000  -4221.2545    
  45279000  -4216.515     
  45280000  -4060.4638    
  45281000  -4109.5631    
  45282000  -4131.9799    
  45283000  -4192.2015    
  45284000  -4180.6998    
  45285000  -4250.453     
  45286000  -4246.4598    
  45287000  -4171.8932    
  45288000  -4186.8774    
  45289000  -4190.616     
  45290000  -4143.2325    
  45291000  -4176.8578    
  45292000  -4166.9002    
  45293000  -4086.4331    
  45294000  -4169.4966    
  45295000  -4139.8644    
  45296000  -4142.7308    
  45297000  -4171.922     
  45298000  -4112.1463    
  45299000  -4138.384     
  45300000  -4188.4931    
  45301000  -4126.9541    
  45302000  -4165.3656    
  45303000  -4171.1408    
  45304000  -4218.135     
  45305000  -4202.9852    
  45306000  -4246.9037    
  45307000  -4165.4252    
  45308000  -4164.1084    
  45309000  -4085.752     
  45310000  -4161.1367    
  45311000  -4280.4402    
  45312000  -4185.7183    
  45313000  -4174.6634    
  45314000  -4246.4808    
  45315000  -4271.2506    
  45316000  -4324.7481    
  45317000  -4363.1011    
  45318000  -4355.1199    
  45319000  -4280.1863    
  45320000  -4347.3122    
  45321000  -4316.421     
  45322000  -4315.5832    
  45323000  -4236.1825    
  45324000  -4178.1932    
  45325000  -4281.9465    
  45326000  -4157.056     
  45327000  -4259.8865    
  45328000  -4205.0509    
  45329000  -4249.438     
  45330000  -4205.2345    
  45331000  -4179.6928    
  45332000  -4153.1303    
  45333000  -4216.098     
  45334000  -4112.5278    
  45335000  -4100.5333    
  45336000  -4031.3888    
  45337000  -4144.1584    
  45338000  -4104.6843    
  45339000  -4119.517     
  45340000  -4177.1376    
  45341000  -4065.6562    
  45342000  -4124.6256    
  45343000  -4157.0767    
  45344000  -4071.8952    
  45345000  -4041.6962    
  45346000  -4137.8517    
  45347000  -4117.5395    
  45348000  -4045.022     
  45349000  -4104.3806    
  45350000  -4133.4382    
  45351000  -4115.5405    
  45352000  -4151.3147    
  45353000  -4210.3771    
  45354000  -4105.1374    
  45355000  -4138.7138    
  45356000  -4185.4163    
  45357000  -4190.2371    
  45358000  -4132.0235    
  45359000  -4080.8736    
  45360000  -4089.0767    
  45361000  -4059.0824    
  45362000  -4121.2099    
  45363000  -4201.9487    
  45364000  -4142.7584    
  45365000  -4061.892     
  45366000  -4084.5907    
  45367000  -4053.5115    
  45368000  -4180.0078    
  45369000  -4193.4703    
  45370000  -4044.5892    
  45371000  -4135.5236    
  45372000  -4194.7799    
  45373000  -4147.5663    
  45374000  -4204.4934    
  45375000  -4255.0805    
  45376000  -4133.1386    
  45377000  -4213.6959    
  45378000  -4194.3852    
  45379000  -4183.1427    
  45380000  -4222.3376    
  45381000  -4262.3791    
  45382000  -4173.2987    
  45383000  -4225.8689    
  45384000  -4180.353     
  45385000  -4222.206     
  45386000  -4131.0535    
  45387000  -4143.0829    
  45388000  -4101.5883    
  45389000  -4122.3774    
  45390000  -4149.0324    
  45391000  -4198.7974    
  45392000  -4248.7064    
  45393000  -4281.5959    
  45394000  -4176.2293    
  45395000  -4237.7762    
  45396000  -4261.551     
  45397000  -4149.1866    
  45398000  -4126.5953    
  45399000  -4189.4348    
  45400000  -4340.7703    
  45401000  -4202.4054    
  45402000  -4302.8624    
  45403000  -4270.4419    
  45404000  -4259.3288    
  45405000  -4235.0842    
  45406000  -4204.2652    
  45407000  -4266.233     
  45408000  -4192.7149    
  45409000  -4200.7774    
  45410000  -4122.7312    
  45411000  -4197.778     
  45412000  -4177.6918    
  45413000  -4151.2665    
  45414000  -4208.2248    
  45415000  -4208.2324    
  45416000  -4097.7193    
  45417000  -4195.2145    
  45418000  -4149.3225    
  45419000  -4207.1598    
  45420000  -4273.6641    
  45421000  -4285.5631    
  45422000  -4251.4994    
  45423000  -4183.412     
  45424000  -4240.6177    
  45425000  -4295.0386    
  45426000  -4251.3346    
  45427000  -4245.612     
  45428000  -4219.4705    
  45429000  -4243.4537    
  45430000  -4214.13      
  45431000  -4201.5823    
  45432000  -4081.2213    
  45433000  -4152.3176    
  45434000  -3996.735     
  45435000  -4207.4527    
  45436000  -4144.3173    
  45437000  -4062.1511    
  45438000  -4005.669     
  45439000  -4066.0817    
  45440000  -4104.972     
  45441000  -4115.4526    
  45442000  -4139.2374    
  45443000  -4158.8014    
  45444000  -4145.2948    
  45445000  -4201.9756    
  45446000  -4142.6342    
  45447000  -4085.6299    
  45448000  -4173.3015    
  45449000  -4124.4082    
  45450000  -4144.1417    
  45451000  -4149.3659    
  45452000  -4133.0759    
  45453000  -4230.1297    
  45454000  -4288.9419    
  45455000  -4277.5027    
  45456000  -4348.7232    
  45457000  -4229.7005    
  45458000  -4271.916     
  45459000  -4300.0431    
  45460000  -4203.1519    
  45461000  -4241.0012    
  45462000  -4304.3287    
  45463000  -4311.2286    
  45464000  -4227.6639    
  45465000  -4201.5427    
  45466000  -4288.7793    
  45467000  -4315.7037    
  45468000  -4275.4848    
  45469000  -4256.4002    
  45470000  -4214.1057    
  45471000  -4304.3364    
  45472000  -4277.9755    
  45473000  -4230.3678    
  45474000  -4327.4096    
  45475000  -4257.1948    
  45476000  -4239.9499    
  45477000  -4235.2602    
  45478000  -4356.0588    
  45479000  -4190.2389    
  45480000  -4190.5872    
  45481000  -4296.0842    
  45482000  -4188.1252    
  45483000  -4249.2108    
  45484000  -4135.7728    
  45485000  -4229.4688    
  45486000  -4161.8733    
  45487000  -4200.9677    
  45488000  -4239.5926    
  45489000  -4251.6292    
  45490000  -4204.1605    
  45491000  -4224.4979    
  45492000  -4193.547     
  45493000  -4197.4049    
  45494000  -4197.5953    
  45495000  -4195.3839    
  45496000  -4234.4963    
  45497000  -4146.6878    
  45498000  -4154.0829    
  45499000  -4176.7871    
  45500000  -4096.9383    
  45501000  -4129.3492    
  45502000  -4296.265     
  45503000  -4291.977     
  45504000  -4178.178     
  45505000  -4349.0343    
  45506000  -4299.5776    
  45507000  -4285.4647    
  45508000  -4276.3182    
  45509000  -4305.3356    
  45510000  -4201.0548    
  45511000  -4175.1813    
  45512000  -4196.1166    
  45513000  -4219.5117    
  45514000  -4175.9491    
  45515000  -4115.1922    
  45516000  -4126.8435    
  45517000  -4134.9312    
  45518000  -4092.7312    
  45519000  -4112.791     
  45520000  -4154.7712    
  45521000  -4209.4149    
  45522000  -4197.1389    
  45523000  -4172.3606    
  45524000  -4183.1555    
  45525000  -4089.5557    
  45526000  -4197.9148    
  45527000  -4209.3102    
  45528000  -4171.4039    
  45529000  -4251.9019    
  45530000  -4170.0464    
  45531000  -4262.2055    
  45532000  -4273.2632    
  45533000  -4234.4769    
  45534000  -4220.1065    
  45535000  -4167.8408    
  45536000  -4166.8099    
  45537000  -4184.2771    
  45538000  -4113.4803    
  45539000  -4267.3256    
  45540000  -4243.4429    
  45541000  -4176.9267    
  45542000  -4111.6034    
  45543000  -4211.9322    
  45544000  -4133.7079    
  45545000  -4238.4033    
  45546000  -4090.3487    
  45547000  -4103.9759    
  45548000  -4103.0196    
  45549000  -4092.1835    
  45550000  -3993.3234    
  45551000  -4041.8695    
  45552000  -4076.0992    
  45553000  -4085.2811    
  45554000  -4078.1303    
  45555000  -4008.5938    
  45556000  -4094.0538    
  45557000  -4216.6477    
  45558000  -4042.2306    
  45559000  -4105.8877    
  45560000  -4098.6092    
  45561000  -4127.9527    
  45562000  -4197.8403    
  45563000  -4114.5689    
  45564000  -4079.6433    
  45565000  -4092.7093    
  45566000  -4145.4451    
  45567000  -4032.0453    
  45568000  -4006.2832    
  45569000  -4084.8871    
  45570000  -4023.3266    
  45571000  -4095.2827    
  45572000  -4202.4238    
  45573000  -4190.877     
  45574000  -4309.6138    
  45575000  -4285.3252    
  45576000  -4244.3247    
  45577000  -4285.2143    
  45578000  -4222.5054    
  45579000  -4220.1829    
  45580000  -4326.0819    
  45581000  -4191.1082    
  45582000  -4107.2121    
  45583000  -4175.877     
  45584000  -4120.9705    
  45585000  -4167.6576    
  45586000  -4180.1281    
  45587000  -4190.1482    
  45588000  -4204.8443    
  45589000  -4159.0106    
  45590000  -4231.046     
  45591000  -4202.594     
  45592000  -4312.6145    
  45593000  -4283.4979    
  45594000  -4223.8142    
  45595000  -4282.8853    
  45596000  -4270.5638    
  45597000  -4276.5545    
  45598000  -4358.7306    
  45599000  -4235.9383    
  45600000  -4151.1725    
  45601000  -4277.4682    
  45602000  -4231.7561    
  45603000  -4275.5378    
  45604000  -4320.2313    
  45605000  -4206.8748    
  45606000  -4333.9363    
  45607000  -4332.799     
  45608000  -4286.3144    
  45609000  -4265.4177    
  45610000  -4324.3707    
  45611000  -4287.2064    
  45612000  -4269.3606    
  45613000  -4154.4178    
  45614000  -4306.4598    
  45615000  -4164.9028    
  45616000  -4106.223     
  45617000  -4100.378     
  45618000  -4094.9096    
  45619000  -4040.6146    
  45620000  -4007.7062    
  45621000  -4003.9852    
  45622000  -4051.9422    
  45623000  -4012.8308    
  45624000  -4093.9194    
  45625000  -4007.5729    
  45626000  -3963.0644    
  45627000  -4081.5589    
  45628000  -4031.8516    
  45629000  -4077.5767    
  45630000  -4027.1387    
  45631000  -4016.8979    
  45632000  -4054.4015    
  45633000  -4074.1177    
  45634000  -4153.8034    
  45635000  -4017.4625    
  45636000  -4003.908     
  45637000  -4140.8929    
  45638000  -4139.6751    
  45639000  -4068.4098    
  45640000  -4056.3189    
  45641000  -4028.8395    
  45642000  -4099.8649    
  45643000  -4056.738     
  45644000  -4005.3684    
  45645000  -3998.7394    
  45646000  -4052.4852    
  45647000  -4029.4875    
  45648000  -4054.8554    
  45649000  -4032.8776    
  45650000  -4101.043     
  45651000  -4022.0686    
  45652000  -4071.5457    
  45653000  -4185.5078    
  45654000  -3950.9277    
  45655000  -4035.6495    
  45656000  -3996.1039    
  45657000  -3961.6714    
  45658000  -4058.6997    
  45659000  -4042.3304    
  45660000  -3999.1931    
  45661000  -4009.3072    
  45662000  -4099.4225    
  45663000  -4059.123     
  45664000  -4085.495     
  45665000  -4043.748     
  45666000  -4114.8333    
  45667000  -4081.5273    
  45668000  -4183.7138    
  45669000  -4218.13      
  45670000  -4246.6999    
  45671000  -4119.7063    
  45672000  -4057.4743    
  45673000  -4049.2851    
  45674000  -4028.1163    
  45675000  -4080.8378    
  45676000  -4103.5589    
  45677000  -4148.7893    
  45678000  -4149.019     
  45679000  -4224.0833    
  45680000  -4152.6338    
  45681000  -4229.1937    
  45682000  -4134.4706    
  45683000  -4144.2315    
  45684000  -4181.1144    
  45685000  -4109.2262    
  45686000  -4179.7013    
  45687000  -4143.8108    
  45688000  -4175.6282    
  45689000  -4146.4245    
  45690000  -4169.5917    
  45691000  -4121.8334    
  45692000  -4058.1377    
  45693000  -4110.0581    
  45694000  -4169.0355    
  45695000  -4150.004     
  45696000  -4206.7678    
  45697000  -4184.7401    
  45698000  -4129.1335    
  45699000  -4170.7419    
  45700000  -4092.6003    
  45701000  -4131.6689    
  45702000  -4108.7741    
  45703000  -4203.2958    
  45704000  -4218.2654    
  45705000  -4205.6697    
  45706000  -4189.1092    
  45707000  -4282.5387    
  45708000  -4277.9928    
  45709000  -4160.4966    
  45710000  -4274.0056    
  45711000  -4191.2729    
  45712000  -4200.357     
  45713000  -4257.3751    
  45714000  -4245.1272    
  45715000  -4271.2566    
  45716000  -4182.2608    
  45717000  -4195.8439    
  45718000  -4125.0603    
  45719000  -4152.6132    
  45720000  -4248.4279    
  45721000  -4153.7122    
  45722000  -4145.4141    
  45723000  -4072.6468    
  45724000  -4232.0444    
  45725000  -4206.6954    
  45726000  -4115.8053    
  45727000  -4188.8899    
  45728000  -4111.4198    
  45729000  -4145.2399    
  45730000  -4167.9733    
  45731000  -4187.6116    
  45732000  -4250.3105    
  45733000  -4250.72      
  45734000  -4174.4144    
  45735000  -4170.3888    
  45736000  -4248.4888    
  45737000  -4337.0096    
  45738000  -4250.2161    
  45739000  -4166.4742    
  45740000  -4259.8103    
  45741000  -4103.9755    
  45742000  -4125.2942    
  45743000  -4260.7105    
  45744000  -4179.6134    
  45745000  -4177.8874    
  45746000  -4194.2856    
  45747000  -4189.8773    
  45748000  -4171.3431    
  45749000  -4244.4239    
  45750000  -4165.4926    
  45751000  -4070.4638    
  45752000  -4046.0609    
  45753000  -4177.289     
  45754000  -4028.5171    
  45755000  -4171.4884    
  45756000  -3995.4409    
  45757000  -4037.4698    
  45758000  -4064.6912    
  45759000  -4044.2907    
  45760000  -4210.9602    
  45761000  -4121.5353    
  45762000  -4084.2391    
  45763000  -4140.2242    
  45764000  -4136.9414    
  45765000  -4091.1899    
  45766000  -4145.1826    
  45767000  -4124.9046    
  45768000  -4128.7119    
  45769000  -4157.6324    
  45770000  -4228.0399    
  45771000  -4120.2514    
  45772000  -4126.097     
  45773000  -4192.6851    
  45774000  -4172.8343    
  45775000  -4125.6604    
  45776000  -4251.0772    
  45777000  -4144.3052    
  45778000  -4254.5447    
  45779000  -4286.0074    
  45780000  -4227.5799    
  45781000  -4355.7547    
  45782000  -4261.2713    
  45783000  -4299.4707    
  45784000  -4272.5016    
  45785000  -4182.2021    
  45786000  -4179.4318    
  45787000  -4301.1328    
  45788000  -4150.7749    
  45789000  -4234.1631    
  45790000  -4282.5559    
  45791000  -4288.8808    
  45792000  -4385.8952    
  45793000  -4291.365     
  45794000  -4365.1628    
  45795000  -4274.3363    
  45796000  -4312.2012    
  45797000  -4338.5878    
  45798000  -4294.0125    
  45799000  -4257.2805    
  45800000  -4228.5607    
  45801000  -4232.5779    
  45802000  -4202.2151    
  45803000  -4198.787     
  45804000  -4308.3029    
  45805000  -4207.0295    
  45806000  -4224.8098    
  45807000  -4202.6897    
  45808000  -4274.3722    
  45809000  -4197.4633    
  45810000  -4202.0803    
  45811000  -4199.7709    
  45812000  -4214.7582    
  45813000  -4150.1385    
  45814000  -4229.4926    
  45815000  -4305.177     
  45816000  -4193.9372    
  45817000  -4260.4728    
  45818000  -4078.6892    
  45819000  -4271.5267    
  45820000  -4235.2055    
  45821000  -4154.2923    
  45822000  -4128.0725    
  45823000  -4060.9064    
  45824000  -4227.4707    
  45825000  -4204.7886    
  45826000  -4254.8135    
  45827000  -4190.4677    
  45828000  -4210.8255    
  45829000  -4256.0459    
  45830000  -4226.0043    
  45831000  -4210.8538    
  45832000  -4256.3004    
  45833000  -4244.8127    
  45834000  -4214.4603    
  45835000  -4228.5236    
  45836000  -4258.2179    
  45837000  -4245.9019    
  45838000  -4196.5642    
  45839000  -4121.5538    
  45840000  -4242.8662    
  45841000  -4235.6469    
  45842000  -4192.2515    
  45843000  -4290.0363    
  45844000  -4271.8335    
  45845000  -4172.4587    
  45846000  -4269.9049    
  45847000  -4240.3841    
  45848000  -4197.4907    
  45849000  -4243.0074    
  45850000  -4310.3935    
  45851000  -4250.7131    
  45852000  -4364.1119    
  45853000  -4281.1778    
  45854000  -4146.1296    
  45855000  -4167.7227    
  45856000  -4213.3381    
  45857000  -4146.0671    
  45858000  -4201.8879    
  45859000  -4155.6703    
  45860000  -4232.5833    
  45861000  -4271.0549    
  45862000  -4318.0036    
  45863000  -4307.2911    
  45864000  -4246.4101    
  45865000  -4169.5247    
  45866000  -4268.386     
  45867000  -4212.6887    
  45868000  -4175.0564    
  45869000  -4197.8326    
  45870000  -4201.8326    
  45871000  -4109.2395    
  45872000  -4252.9702    
  45873000  -4239.8143    
  45874000  -4283.1156    
  45875000  -4337.4258    
  45876000  -4231.6305    
  45877000  -4272.449     
  45878000  -4210.2039    
  45879000  -4294.7342    
  45880000  -4207.0624    
  45881000  -4263.3837    
  45882000  -4125.1824    
  45883000  -4131.7113    
  45884000  -4161.6034    
  45885000  -4127.024     
  45886000  -4253.1807    
  45887000  -4312.9681    
  45888000  -4124.4154    
  45889000  -4167.4588    
  45890000  -4167.6307    
  45891000  -4123.0869    
  45892000  -4081.7327    
  45893000  -4141.9851    
  45894000  -4083.6792    
  45895000  -4115.5512    
  45896000  -4117.6343    
  45897000  -4065.9138    
  45898000  -4095.1972    
  45899000  -4165.4058    
  45900000  -4161.6171    
  45901000  -4124.826     
  45902000  -4154.7756    
  45903000  -4169.5205    
  45904000  -4165.4552    
  45905000  -4093.8584    
  45906000  -4077.6051    
  45907000  -4196.2966    
  45908000  -4136.1225    
  45909000  -4094.2356    
  45910000  -4174.9313    
  45911000  -4094.9511    
  45912000  -4100.5062    
  45913000  -4124.0717    
  45914000  -4234.7741    
  45915000  -4127.1975    
  45916000  -4160.9628    
  45917000  -4141.7067    
  45918000  -4053.8386    
  45919000  -4060.1718    
  45920000  -4118.1562    
  45921000  -4111.7219    
  45922000  -4172.4775    
  45923000  -4101.9221    
  45924000  -4095.9821    
  45925000  -4093.2901    
  45926000  -4095.7866    
  45927000  -4118.7319    
  45928000  -4093.147     
  45929000  -4186.0014    
  45930000  -4142.0995    
  45931000  -4070.0206    
  45932000  -4121.394     
  45933000  -4035.5179    
  45934000  -4062.8244    
  45935000  -4074.076     
  45936000  -4073.1785    
  45937000  -3982.9008    
  45938000  -4001.1009    
  45939000  -4016.6925    
  45940000  -3990.9987    
  45941000  -3932.5002    
  45942000  -3991.7448    
  45943000  -3996.9274    
  45944000  -3943.4775    
  45945000  -3993.8112    
  45946000  -3899.8013    
  45947000  -3877.8361    
  45948000  -3937.904     
  45949000  -3998.2388    
  45950000  -3963.8251    
  45951000  -3891.5272    
  45952000  -3959.3947    
  45953000  -3975.7716    
  45954000  -4028.2695    
  45955000  -3969.5966    
  45956000  -3947.1589    
  45957000  -3842.647     
  45958000  -4007.0055    
  45959000  -4021.2966    
  45960000  -3906.2677    
  45961000  -3944.9206    
  45962000  -3988.0697    
  45963000  -3864.2896    
  45964000  -3894.4251    
  45965000  -3901.638     
  45966000  -3925.624     
  45967000  -3957.9947    
  45968000  -3871.1931    
  45969000  -3906.1959    
  45970000  -3936.0157    
  45971000  -3848.6567    
  45972000  -3835.1731    
  45973000  -3960.7487    
  45974000  -3937.4078    
  45975000  -3971.5773    
  45976000  -3799.0387    
  45977000  -3943.0043    
  45978000  -3941.6668    
  45979000  -3981.842     
  45980000  -3988.0682    
  45981000  -3998.377     
  45982000  -4044.1628    
  45983000  -4058.5182    
  45984000  -4026.8781    
  45985000  -4067.0511    
  45986000  -4150.7065    
  45987000  -4095.8385    
  45988000  -4105.8578    
  45989000  -4078.2615    
  45990000  -4136.5362    
  45991000  -4017.9876    
  45992000  -4048.3577    
  45993000  -4075.4425    
  45994000  -4048.1475    
  45995000  -4063.4906    
  45996000  -4063.8203    
  45997000  -4045.1395    
  45998000  -4104.8266    
  45999000  -4153.9201    
  46000000  -4055.3277    
  46001000  -3982.5145    
  46002000  -4023.8069    
  46003000  -4025.5791    
  46004000  -4072.5037    
  46005000  -4142.8912    
  46006000  -4058.5989    
  46007000  -4222.6583    
  46008000  -4127.3589    
  46009000  -4193.2675    
  46010000  -4141.3652    
  46011000  -4111.1013    
  46012000  -4061.4521    
  46013000  -4016.2568    
  46014000  -4068.1908    
  46015000  -4046.7025    
  46016000  -4039.7564    
  46017000  -4050.1199    
  46018000  -4069.151     
  46019000  -4057.5139    
  46020000  -4012.6597    
  46021000  -4066.0728    
  46022000  -4068.443     
  46023000  -4020.3358    
  46024000  -4019.2779    
  46025000  -4051.7644    
  46026000  -3917.7727    
  46027000  -3992.6997    
  46028000  -3904.7102    
  46029000  -3902.2687    
  46030000  -3876.0363    
  46031000  -3868.9297    
  46032000  -3797.1771    
  46033000  -3962.3584    
  46034000  -3936.9615    
  46035000  -3821.2278    
  46036000  -3989.3016    
  46037000  -3947.1004    
  46038000  -3925.6626    
  46039000  -3990.2624    
  46040000  -4050.9296    
  46041000  -3996.8213    
  46042000  -4081.0212    
  46043000  -3914.5633    
  46044000  -3988.04      
  46045000  -3881.6298    
  46046000  -4012.1716    
  46047000  -3883.7839    
  46048000  -3938.8953    
  46049000  -4009.6837    
  46050000  -4056.5618    
  46051000  -4054.0961    
  46052000  -4066.6569    
  46053000  -3960.9653    
  46054000  -4045.1143    
  46055000  -3979.2762    
  46056000  -4135.8745    
  46057000  -4049.1122    
  46058000  -4135.6854    
  46059000  -4068.91      
  46060000  -4102.822     
  46061000  -4023.4513    
  46062000  -4069.0691    
  46063000  -4032.5757    
  46064000  -4148.1311    
  46065000  -4061.0027    
  46066000  -4094.3433    
  46067000  -4109.0304    
  46068000  -4241.5678    
  46069000  -4145.1426    
  46070000  -4096.4842    
  46071000  -4034.4919    
  46072000  -4073.3494    
  46073000  -4053.523     
  46074000  -4124.6553    
  46075000  -4143.4572    
  46076000  -4091.2463    
  46077000  -4076.1737    
  46078000  -4091.013     
  46079000  -4039.6521    
  46080000  -4022.2697    
  46081000  -4051.5524    
  46082000  -4002.577     
  46083000  -4035.7806    
  46084000  -4085.7619    
  46085000  -4069.5444    
  46086000  -4083.1641    
  46087000  -4147.8544    
  46088000  -4115.169     
  46089000  -4004.2267    
  46090000  -4125.8802    
  46091000  -4112.4604    
  46092000  -4203.4465    
  46093000  -4266.2098    
  46094000  -4210.6846    
  46095000  -4202.4136    
  46096000  -4077.1824    
  46097000  -4155.998     
  46098000  -4047.1648    
  46099000  -3995.6033    
  46100000  -4121.8133    
  46101000  -3998.1617    
  46102000  -4006.4114    
  46103000  -3980.0777    
  46104000  -4170.6185    
  46105000  -4079.2905    
  46106000  -4091.2733    
  46107000  -4119.3385    
  46108000  -4127.6097    
  46109000  -4066.7572    
  46110000  -4059.3858    
  46111000  -4172.7474    
  46112000  -4110.4937    
  46113000  -4079.9199    
  46114000  -4023.8825    
  46115000  -4137.7285    
  46116000  -4070.2004    
  46117000  -4069.104     
  46118000  -4026.5025    
  46119000  -4067.7207    
  46120000  -4020.0168    
  46121000  -4053.5706    
  46122000  -3999.3321    
  46123000  -4000.0601    
  46124000  -3945.5839    
  46125000  -3901.9751    
  46126000  -3921.3542    
  46127000  -3980.733     
  46128000  -4002.445     
  46129000  -3943.1145    
  46130000  -3968.4312    
  46131000  -4104.2868    
  46132000  -3977.0429    
  46133000  -4059.9975    
  46134000  -4065.4501    
  46135000  -4087.4262    
  46136000  -4079.4638    
  46137000  -4052.1497    
  46138000  -4095.7376    
  46139000  -4132.7184    
  46140000  -4124.7234    
  46141000  -4166.8068    
  46142000  -4172.4639    
  46143000  -4083.4606    
  46144000  -4123.0078    
  46145000  -4162.9285    
  46146000  -4081.1416    
  46147000  -4041.0869    
  46148000  -3977.113     
  46149000  -3964.6755    
  46150000  -4031.4433    
  46151000  -4004.7685    
  46152000  -3988.9093    
  46153000  -3961.9464    
  46154000  -3964.5228    
  46155000  -4030.4109    
  46156000  -4045.339     
  46157000  -4055.2352    
  46158000  -4062.834     
  46159000  -4031.1045    
  46160000  -4090.8518    
  46161000  -4028.408     
  46162000  -4015.345     
  46163000  -4129.584     
  46164000  -4113.0103    
  46165000  -4111.9877    
  46166000  -4016.618     
  46167000  -4128.6698    
  46168000  -4120.9823    
  46169000  -4164.1584    
  46170000  -4108.723     
  46171000  -4087.8577    
  46172000  -4117.6352    
  46173000  -4185.3295    
  46174000  -4149.5697    
  46175000  -4158.1592    
  46176000  -4190.1476    
  46177000  -4136.1775    
  46178000  -4079.8446    
  46179000  -4076.0988    
  46180000  -4099.7425    
  46181000  -4063.4086    
  46182000  -4069.7469    
  46183000  -3973.4519    
  46184000  -4009.2142    
  46185000  -4056.9693    
  46186000  -4017.6549    
  46187000  -4057.3749    
  46188000  -4079.5082    
  46189000  -3937.2126    
  46190000  -4108.739     
  46191000  -4087.9193    
  46192000  -4128.703     
  46193000  -4068.9606    
  46194000  -4126.5606    
  46195000  -4037.9878    
  46196000  -4146.1634    
  46197000  -4077.8279    
  46198000  -3917.5598    
  46199000  -4023.6201    
  46200000  -3994.3643    
  46201000  -3942.1782    
  46202000  -3976.671     
  46203000  -3899.8884    
  46204000  -3951.3717    
  46205000  -3956.2908    
  46206000  -3934.6224    
  46207000  -3893.3164    
  46208000  -3878.8365    
  46209000  -3928.8146    
  46210000  -3961.1331    
  46211000  -3909.4877    
  46212000  -3951.0505    
  46213000  -4026.5678    
  46214000  -3950.0746    
  46215000  -4018.3918    
  46216000  -3979.1278    
  46217000  -3889.7015    
  46218000  -3915.1085    
  46219000  -3864.1966    
  46220000  -3947.3006    
  46221000  -3922.8305    
  46222000  -3942.0383    
  46223000  -3955.3545    
  46224000  -4081.7998    
  46225000  -3944.4193    
  46226000  -3884.9662    
  46227000  -3920.8271    
  46228000  -3986.1458    
  46229000  -3906.7838    
  46230000  -3940.9551    
  46231000  -3902.9592    
  46232000  -3912.8852    
  46233000  -3963.167     
  46234000  -3943.1433    
  46235000  -3940.0808    
  46236000  -3888.0326    
  46237000  -3902.1115    
  46238000  -3954.5506    
  46239000  -3953.9078    
  46240000  -3850.1926    
  46241000  -3955.7275    
  46242000  -3909.9656    
  46243000  -3960.2758    
  46244000  -4034.5066    
  46245000  -4018.2062    
  46246000  -4039.9887    
  46247000  -4061.7475    
  46248000  -4113.3086    
  46249000  -3926.4909    
  46250000  -4020.7128    
  46251000  -3920.5982    
  46252000  -3888.5973    
  46253000  -3866.5949    
  46254000  -3924.6767    
  46255000  -3921.9955    
  46256000  -4029.9569    
  46257000  -4061.5375    
  46258000  -4078.7994    
  46259000  -4100.8299    
  46260000  -4064.8679    
  46261000  -4146.3055    
  46262000  -4051.2711    
  46263000  -4011.5798    
  46264000  -4006.2899    
  46265000  -4107.5056    
  46266000  -4086.3096    
  46267000  -4211.4989    
  46268000  -4054.0763    
  46269000  -4163.679     
  46270000  -4181.7647    
  46271000  -4130.3368    
  46272000  -4027.2573    
  46273000  -3995.1193    
  46274000  -4093.7753    
  46275000  -4062.5402    
  46276000  -4118.3727    
  46277000  -4078.8211    
  46278000  -4146.9392    
  46279000  -4174.4706    
  46280000  -4145.2842    
  46281000  -4095.5213    
  46282000  -4071.6385    
  46283000  -4047.535     
  46284000  -4098.495     
  46285000  -4176.3229    
  46286000  -4230.03      
  46287000  -4043.8863    
  46288000  -4178.1935    
  46289000  -4109.5451    
  46290000  -4177.9013    
  46291000  -4119.525     
  46292000  -4032.7992    
  46293000  -4137.6774    
  46294000  -4137.7417    
  46295000  -4084.6607    
  46296000  -4186.9113    
  46297000  -4105.7313    
  46298000  -4110.9003    
  46299000  -4143.5486    
  46300000  -4145.0022    
  46301000  -4149.2062    
  46302000  -4176.2555    
  46303000  -4125.8135    
  46304000  -4207.6228    
  46305000  -4234.1222    
  46306000  -4269.0957    
  46307000  -4305.1596    
  46308000  -4187.5864    
  46309000  -4273.7252    
  46310000  -4263.1373    
  46311000  -4237.9491    
  46312000  -4148.7998    
  46313000  -4148.423     
  46314000  -4180.1583    
  46315000  -4303.0848    
  46316000  -4245.4078    
  46317000  -4138.87      
  46318000  -4141.7687    
  46319000  -4189.36      
  46320000  -4219.1087    
  46321000  -4280.6205    
  46322000  -4222.4662    
  46323000  -4182.0423    
  46324000  -4242.0679    
  46325000  -4192.2324    
  46326000  -4058.5049    
  46327000  -4044.9526    
  46328000  -4134.6481    
  46329000  -4114.0598    
  46330000  -4017.1664    
  46331000  -4052.2326    
  46332000  -4165.3509    
  46333000  -4018.4305    
  46334000  -4025.627     
  46335000  -4088.0187    
  46336000  -4012.2382    
  46337000  -4031.1669    
  46338000  -4147.8626    
  46339000  -4037.3411    
  46340000  -4126.9847    
  46341000  -4135.9705    
  46342000  -4097.2079    
  46343000  -4063.6181    
  46344000  -4069.7725    
  46345000  -4095.4214    
  46346000  -4036.3253    
  46347000  -4011.8332    
  46348000  -4132.1607    
  46349000  -4085.3097    
  46350000  -4116.6216    
  46351000  -4132.3169    
  46352000  -4143.1716    
  46353000  -4156.2872    
  46354000  -4176.3963    
  46355000  -4052.7821    
  46356000  -4114.4559    
  46357000  -4084.9507    
  46358000  -4037.5843    
  46359000  -4056.1733    
  46360000  -4049.2931    
  46361000  -4085.4695    
  46362000  -3929.7325    
  46363000  -4013.3581    
  46364000  -3937.8304    
  46365000  -4000.7103    
  46366000  -4028.9307    
  46367000  -3952.5024    
  46368000  -4014.1737    
  46369000  -4045.8524    
  46370000  -3961.5125    
  46371000  -3892.4586    
  46372000  -3870.7034    
  46373000  -3971.9185    
  46374000  -3914.8585    
  46375000  -3983.866     
  46376000  -3908.6927    
  46377000  -3979.1781    
  46378000  -4016.0439    
  46379000  -3958.3658    
  46380000  -3964.7674    
  46381000  -3918.3404    
  46382000  -4059.462     
  46383000  -4070.1391    
  46384000  -4021.6817    
  46385000  -3935.0578    
  46386000  -3947.1062    
  46387000  -3913.9406    
  46388000  -3969.784     
  46389000  -4048.8176    
  46390000  -4088.574     
  46391000  -4092.4318    
  46392000  -4142.4403    
  46393000  -4063.1642    
  46394000  -4067.8161    
  46395000  -4017.3158    
  46396000  -4024.2389    
  46397000  -4030.4633    
  46398000  -4005.8283    
  46399000  -4006.5649    
  46400000  -3961.2246    
  46401000  -4010.7529    
  46402000  -4120.7483    
  46403000  -4106.8767    
  46404000  -4008.944     
  46405000  -4036.7752    
  46406000  -4003.4158    
  46407000  -4017.7356    
  46408000  -4106.2488    
  46409000  -3988.924     
  46410000  -4059.8179    
  46411000  -3955.3457    
  46412000  -4078.6925    
  46413000  -4141.7746    
  46414000  -4038.0832    
  46415000  -4121.8743    
  46416000  -4034.3636    
  46417000  -4083.1388    
  46418000  -4109.1892    
  46419000  -4065.0759    
  46420000  -4031.1269    
  46421000  -4135.6779    
  46422000  -4005.0233    
  46423000  -4120.4365    
  46424000  -4138.418     
  46425000  -4122.6254    
  46426000  -4140.7385    
  46427000  -4126.729     
  46428000  -4118.5443    
  46429000  -4128.1497    
  46430000  -4065.9229    
  46431000  -4034.2807    
  46432000  -3988.4461    
  46433000  -3964.1745    
  46434000  -4024.2364    
  46435000  -4081.7873    
  46436000  -4049.2789    
  46437000  -4100.0564    
  46438000  -4108.9788    
  46439000  -4055.6513    
  46440000  -4117.8913    
  46441000  -4041.3215    
  46442000  -4125.1176    
  46443000  -4194.8501    
  46444000  -4155.4763    
  46445000  -4137.3413    
  46446000  -4053.7072    
  46447000  -4043.4263    
  46448000  -4065.334     
  46449000  -4088.2254    
  46450000  -4018.0833    
  46451000  -3986.3422    
  46452000  -3988.8397    
  46453000  -4154.5591    
  46454000  -3984.4612    
  46455000  -3947.0216    
  46456000  -3939.2187    
  46457000  -3910.2151    
  46458000  -3920.7696    
  46459000  -4003.321     
  46460000  -4032.5542    
  46461000  -3924.7782    
  46462000  -4043.8898    
  46463000  -4063.8534    
  46464000  -4111.49      
  46465000  -4114.8107    
  46466000  -4096.0963    
  46467000  -3964.3335    
  46468000  -4066.3363    
  46469000  -4057.0798    
  46470000  -3969.1771    
  46471000  -4083.0335    
  46472000  -4052.2675    
  46473000  -4065.7991    
  46474000  -4006.1201    
  46475000  -3935.3387    
  46476000  -4092.5359    
  46477000  -3929.5301    
  46478000  -3969.0949    
  46479000  -3933.8171    
  46480000  -3931.3803    
  46481000  -3974.5313    
  46482000  -3948.5775    
  46483000  -3818.0451    
  46484000  -3939.6578    
  46485000  -3842.3786    
  46486000  -3954.4707    
  46487000  -3918.9325    
  46488000  -3977.5649    
  46489000  -3963.846     
  46490000  -3969.9499    
  46491000  -4003.7656    
  46492000  -3984.8717    
  46493000  -3957.285     
  46494000  -4055.7306    
  46495000  -4016.359     
  46496000  -4037.9427    
  46497000  -3945.1627    
  46498000  -3951.2671    
  46499000  -4069.2504    
  46500000  -3904.099     
  46501000  -4154.4754    
  46502000  -3975.2954    
  46503000  -4043.8028    
  46504000  -4119.8202    
  46505000  -4076.5623    
  46506000  -4028.2251    
  46507000  -4083.844     
  46508000  -4096.4453    
  46509000  -4063.2831    
  46510000  -4047.4172    
  46511000  -4064.9549    
  46512000  -4083.3727    
  46513000  -4075.5992    
  46514000  -4080.6999    
  46515000  -4209.8184    
  46516000  -4058.4847    
  46517000  -4129.2276    
  46518000  -4067.8215    
  46519000  -3921.8152    
  46520000  -3890.3769    
  46521000  -4033.9568    
  46522000  -3995.5823    
  46523000  -3985.2863    
  46524000  -4050.175     
  46525000  -4023.4392    
  46526000  -4006.0364    
  46527000  -4008.935     
  46528000  -4047.6442    
  46529000  -4066.417     
  46530000  -4029.2403    
  46531000  -4025.541     
  46532000  -4072.7001    
  46533000  -4114.8107    
  46534000  -4071.1603    
  46535000  -4059.7734    
  46536000  -4068.0666    
  46537000  -4064.1301    
  46538000  -4024.2842    
  46539000  -4091.3097    
  46540000  -4071.3389    
  46541000  -4090.4077    
  46542000  -4013.2673    
  46543000  -3943.7795    
  46544000  -4015.2399    
  46545000  -4203.2404    
  46546000  -4140.2513    
  46547000  -4137.7022    
  46548000  -3982.9296    
  46549000  -4031.4874    
  46550000  -4026.8587    
  46551000  -4087.2722    
  46552000  -4058.7766    
  46553000  -4059.7937    
  46554000  -4050.9581    
  46555000  -4165.0994    
  46556000  -4150.7894    
  46557000  -4172.1327    
  46558000  -4138.9026    
  46559000  -4100.9118    
  46560000  -4094.2259    
  46561000  -4072.1412    
  46562000  -4118.7312    
  46563000  -4113.3309    
  46564000  -4156.9564    
  46565000  -4054.4827    
  46566000  -4201.1412    
  46567000  -4123.0366    
  46568000  -4114.8767    
  46569000  -4114.8418    
  46570000  -4130.0037    
  46571000  -4222.6586    
  46572000  -4161.2222    
  46573000  -4202.4015    
  46574000  -4239.9464    
  46575000  -4294.4932    
  46576000  -4210.2047    
  46577000  -4254.9128    
  46578000  -4155.5567    
  46579000  -4222.7097    
  46580000  -4215.7322    
  46581000  -4291.9956    
  46582000  -4253.9215    
  46583000  -4215.5528    
  46584000  -4304.7253    
  46585000  -4201.3707    
  46586000  -4251.7082    
  46587000  -4273.6984    
  46588000  -4173.6392    
  46589000  -4225.6889    
  46590000  -4209.6536    
  46591000  -4145.8613    
  46592000  -4119.8828    
  46593000  -4080.703     
  46594000  -4250.8491    
  46595000  -4255.4729    
  46596000  -4193.1146    
  46597000  -4086.5276    
  46598000  -4069.0964    
  46599000  -4160.0755    
  46600000  -4122.3572    
  46601000  -4282.2836    
  46602000  -4201.6049    
  46603000  -4246.9826    
  46604000  -4204.7697    
  46605000  -4241.5664    
  46606000  -4294.2431    
  46607000  -4246.5631    
  46608000  -4137.1085    
  46609000  -4245.9436    
  46610000  -4142.2603    
  46611000  -4240.1772    
  46612000  -4182.6223    
  46613000  -4190.4623    
  46614000  -4294.3983    
  46615000  -4173.3892    
  46616000  -4215.8139    
  46617000  -4273.9718    
  46618000  -4226.7583    
  46619000  -4211.7382    
  46620000  -4266.6165    
  46621000  -4253.6448    
  46622000  -4241.1989    
  46623000  -4183.467     
  46624000  -4265.0086    
  46625000  -4231.2658    
  46626000  -4202.2889    
  46627000  -4232.2404    
  46628000  -4078.5255    
  46629000  -4271.7876    
  46630000  -4176.0587    
  46631000  -4234.3592    
  46632000  -4243.9523    
  46633000  -4231.1959    
  46634000  -4257.3505    
  46635000  -4259.5289    
  46636000  -4164.0656    
  46637000  -4235.5237    
  46638000  -4154.7976    
  46639000  -4238.5751    
  46640000  -4123.7669    
  46641000  -4192.1795    
  46642000  -4081.4857    
  46643000  -4144.3628    
  46644000  -4135.7983    
  46645000  -4206.4647    
  46646000  -4231.7701    
  46647000  -4093.4464    
  46648000  -4251.9313    
  46649000  -4266.0994    
  46650000  -4287.4067    
  46651000  -4320.8059    
  46652000  -4274.0458    
  46653000  -4368.5934    
  46654000  -4348.3447    
  46655000  -4415.6635    
  46656000  -4354.877     
  46657000  -4362.2252    
  46658000  -4381.1555    
  46659000  -4258.1423    
  46660000  -4307.6113    
  46661000  -4317.1768    
  46662000  -4428.7809    
  46663000  -4241.4832    
  46664000  -4292.7585    
  46665000  -4294.8353    
  46666000  -4345.6349    
  46667000  -4355.7178    
  46668000  -4213.8289    
  46669000  -4303.4808    
  46670000  -4235.0179    
  46671000  -4319.1505    
  46672000  -4302.1727    
  46673000  -4345.9168    
  46674000  -4233.9427    
  46675000  -4243.2816    
  46676000  -4190.0294    
  46677000  -4174.6743    
  46678000  -4234.2858    
  46679000  -4313.856     
  46680000  -4028.0137    
  46681000  -4190.7688    
  46682000  -4232.9988    
  46683000  -4151.6429    
  46684000  -4210.5662    
  46685000  -4234.43      
  46686000  -4217.8543    
  46687000  -4320.2712    
  46688000  -4236.1115    
  46689000  -4313.1094    
  46690000  -4186.2584    
  46691000  -4147.2846    
  46692000  -4101.6111    
  46693000  -4241.0817    
  46694000  -4199.0872    
  46695000  -4259.4629    
  46696000  -4161.5699    
  46697000  -4248.481     
  46698000  -4172.3319    
  46699000  -4218.7215    
  46700000  -4158.7956    
  46701000  -4231.6032    
  46702000  -4306.3741    
  46703000  -4288.2868    
  46704000  -4250.1212    
  46705000  -4213.4645    
  46706000  -4302.121     
  46707000  -4279.9462    
  46708000  -4345.5857    
  46709000  -4274.4121    
  46710000  -4179.3786    
  46711000  -4221.066     
  46712000  -4299.0915    
  46713000  -4337.7982    
  46714000  -4232.8998    
  46715000  -4212.1499    
  46716000  -4268.9646    
  46717000  -4181.446     
  46718000  -4230.5796    
  46719000  -4133.6998    
  46720000  -4127.7091    
  46721000  -4041.0973    
  46722000  -4177.7197    
  46723000  -4185.1806    
  46724000  -4215.0285    
  46725000  -4222.826     
  46726000  -4140.7698    
  46727000  -4206.2988    
  46728000  -4210.868     
  46729000  -4220.1323    
  46730000  -4181.2516    
  46731000  -4158.2327    
  46732000  -4135.2348    
  46733000  -4212.3682    
  46734000  -4148.2395    
  46735000  -4268.4674    
  46736000  -4142.1268    
  46737000  -4272.8202    
  46738000  -4194.9672    
  46739000  -4160.2704    
  46740000  -4164.344     
  46741000  -4275.3262    
  46742000  -4138.3157    
  46743000  -4200.8487    
  46744000  -4193.2161    
  46745000  -4162.9139    
  46746000  -4202.0248    
  46747000  -4171.7146    
  46748000  -4167.1983    
  46749000  -4186.1313    
  46750000  -4196.8607    
  46751000  -4090.728     
  46752000  -4091.93      
  46753000  -4193.4094    
  46754000  -4156.0939    
  46755000  -4163.9828    
  46756000  -4226.2915    
  46757000  -4194.2758    
  46758000  -4245.6108    
  46759000  -4265.4039    
  46760000  -4173.3586    
  46761000  -4262.2311    
  46762000  -4210.5204    
  46763000  -4164.5354    
  46764000  -4292.6252    
  46765000  -4297.4973    
  46766000  -4259.7648    
  46767000  -4370.0912    
  46768000  -4322.5814    
  46769000  -4289.9903    
  46770000  -4361.4582    
  46771000  -4328.9623    
  46772000  -4341.7928    
  46773000  -4332.339     
  46774000  -4344.5569    
  46775000  -4213.6229    
  46776000  -4333.818     
  46777000  -4271.367     
  46778000  -4217.4772    
  46779000  -4202.3191    
  46780000  -4322.734     
  46781000  -4266.0247    
  46782000  -4193.8524    
  46783000  -4176.426     
  46784000  -4296.1678    
  46785000  -4234.0879    
  46786000  -4183.0543    
  46787000  -4200.1633    
  46788000  -4201.4594    
  46789000  -4216.8898    
  46790000  -4309.2081    
  46791000  -4199.4543    
  46792000  -4149.9375    
  46793000  -4210.1755    
  46794000  -4159.9493    
  46795000  -4011.0209    
  46796000  -4155.367     
  46797000  -4165.1796    
  46798000  -4060.1865    
  46799000  -4141.7273    
  46800000  -4153.6291    
  46801000  -4019.7671    
  46802000  -4239.8263    
  46803000  -4120.8837    
  46804000  -4150.1299    
  46805000  -4211.3161    
  46806000  -4121.2876    
  46807000  -4230.7455    
  46808000  -4278.4302    
  46809000  -4213.7091    
  46810000  -4169.458     
  46811000  -4139.4245    
  46812000  -4186.9618    
  46813000  -4222.0325    
  46814000  -4172.1079    
  46815000  -4199.4588    
  46816000  -4206.7632    
  46817000  -4149.3433    
  46818000  -4166.6101    
  46819000  -4146.4108    
  46820000  -4291.889     
  46821000  -4321.9509    
  46822000  -4320.6066    
  46823000  -4176.1042    
  46824000  -4189.8316    
  46825000  -4238.5831    
  46826000  -4322.1397    
  46827000  -4285.1795    
  46828000  -4282.5177    
  46829000  -4338.7568    
  46830000  -4214.0353    
  46831000  -4179.0335    
  46832000  -4295.0123    
  46833000  -4197.7045    
  46834000  -4198.6376    
  46835000  -4172.7729    
  46836000  -4135.1832    
  46837000  -4194.2787    
  46838000  -4219.9355    
  46839000  -4265.6771    
  46840000  -4255.8256    
  46841000  -4291.2838    
  46842000  -4167.4882    
  46843000  -4142.8695    
  46844000  -4190.0514    
  46845000  -4161.0934    
  46846000  -4198.2293    
  46847000  -4321.3927    
  46848000  -4225.2621    
  46849000  -4190.8321    
  46850000  -4196.9963    
  46851000  -4119.2131    
  46852000  -4197.8395    
  46853000  -4214.0409    
  46854000  -4208.6912    
  46855000  -4185.2581    
  46856000  -4269.3552    
  46857000  -4188.9245    
  46858000  -4234.4106    
  46859000  -4115.7688    
  46860000  -4180.1881    
  46861000  -4295.8658    
  46862000  -4190.7873    
  46863000  -4117.1857    
  46864000  -4005.965     
  46865000  -4182.7505    
  46866000  -4147.0828    
  46867000  -4128.6641    
  46868000  -4107.6269    
  46869000  -4202.4761    
  46870000  -4061.6367    
  46871000  -4135.0295    
  46872000  -4049.876     
  46873000  -4071.732     
  46874000  -4141.2605    
  46875000  -4253.049     
  46876000  -4207.4496    
  46877000  -4279.3189    
  46878000  -4194.5937    
  46879000  -4186.5714    
  46880000  -4252.6024    
  46881000  -4257.8131    
  46882000  -4170.26      
  46883000  -4050.5066    
  46884000  -4217.9429    
  46885000  -4218.1239    
  46886000  -4186.6383    
  46887000  -4255.8397    
  46888000  -4198.682     
  46889000  -4202.9843    
  46890000  -4174.8961    
  46891000  -4104.3285    
  46892000  -4155.4076    
  46893000  -4130.5655    
  46894000  -4151.1435    
  46895000  -4226.1687    
  46896000  -4213.5328    
  46897000  -4153.1113    
  46898000  -4210.3385    
  46899000  -4187.7072    
  46900000  -4119.387     
  46901000  -4217.57      
  46902000  -4180.9093    
  46903000  -4175.134     
  46904000  -4108.8813    
  46905000  -4037.4897    
  46906000  -4104.0252    
  46907000  -4028.8351    
  46908000  -4132.2555    
  46909000  -4170.7537    
  46910000  -4097.1824    
  46911000  -4200.8014    
  46912000  -4128.8533    
  46913000  -4033.4924    
  46914000  -4101.3167    
  46915000  -4061.2462    
  46916000  -4176.1952    
  46917000  -4187.1153    
  46918000  -4194.6891    
  46919000  -4098.2163    
  46920000  -4013.9509    
  46921000  -4162.3869    
  46922000  -4185.5974    
  46923000  -4137.4887    
  46924000  -4303.4974    
  46925000  -4212.9656    
  46926000  -4237.3507    
  46927000  -4326.222     
  46928000  -4305.2168    
  46929000  -4279.8284    
  46930000  -4151.1528    
  46931000  -4232.9232    
  46932000  -4206.0453    
  46933000  -4117.92      
  46934000  -4181.9286    
  46935000  -4156.4028    
  46936000  -4127.1841    
  46937000  -4155.7971    
  46938000  -4158.279     
  46939000  -4221.5101    
  46940000  -4209.182     
  46941000  -4091.282     
  46942000  -4116.5523    
  46943000  -4115.5696    
  46944000  -4110.4434    
  46945000  -4124.2908    
  46946000  -4099.3314    
  46947000  -4123.2167    
  46948000  -4123.1508    
  46949000  -4124.4732    
  46950000  -4131.4283    
  46951000  -4106.8524    
  46952000  -4158.159     
  46953000  -4131.7083    
  46954000  -4157.4328    
  46955000  -4130.1511    
  46956000  -4136.4909    
  46957000  -4073.2694    
  46958000  -4108.5859    
  46959000  -4101.7223    
  46960000  -4066.318     
  46961000  -4203.206     
  46962000  -4136.765     
  46963000  -4163.6367    
  46964000  -4104.8925    
  46965000  -4098.8183    
  46966000  -4155.1371    
  46967000  -4146.1975    
  46968000  -4081.0589    
  46969000  -4101.6078    
  46970000  -4106.4396    
  46971000  -4066.8873    
  46972000  -4074.4463    
  46973000  -4166.62      
  46974000  -4054.1142    
  46975000  -4100.8025    
  46976000  -4176.1433    
  46977000  -4094.7298    
  46978000  -4145.419     
  46979000  -4078.0959    
  46980000  -4084.3995    
  46981000  -3999.4912    
  46982000  -4023.866     
  46983000  -4033.9719    
  46984000  -3928.5788    
  46985000  -4020.875     
  46986000  -4062.4742    
  46987000  -3879.3849    
  46988000  -3983.3694    
  46989000  -3961.0184    
  46990000  -3909.4607    
  46991000  -3954.0026    
  46992000  -3969.233     
  46993000  -3981.1997    
  46994000  -3968.2903    
  46995000  -3992.8387    
  46996000  -3946.962     
  46997000  -3913.7846    
  46998000  -3944.0629    
  46999000  -3852.8684    
  47000000  -3861.1423    
  47001000  -3909.8637    
  47002000  -3848.0575    
  47003000  -3820.1555    
  47004000  -3851.5647    
  47005000  -3935.0554    
  47006000  -3986.2462    
  47007000  -3797.0857    
  47008000  -3966.2771    
  47009000  -3964.16      
  47010000  -3954.0696    
  47011000  -3944.6259    
  47012000  -3899.8145    
  47013000  -3946.0275    
  47014000  -3939.965     
  47015000  -4066.2109    
  47016000  -4084.9447    
  47017000  -3989.5681    
  47018000  -3988.4758    
  47019000  -4084.6873    
  47020000  -4029.4543    
  47021000  -4059.0022    
  47022000  -3972.9938    
  47023000  -4028.3241    
  47024000  -4062.071     
  47025000  -4084.2693    
  47026000  -4005.932     
  47027000  -4024.322     
  47028000  -4031.2006    
  47029000  -3960.9887    
  47030000  -4028.4597    
  47031000  -4004.679     
  47032000  -4077.1077    
  47033000  -4024.1674    
  47034000  -4031.1837    
  47035000  -4118.0943    
  47036000  -4084.2361    
  47037000  -4040.9562    
  47038000  -4050.7897    
  47039000  -4046.0945    
  47040000  -4065.8024    
  47041000  -4034.6935    
  47042000  -4152.4897    
  47043000  -4055.9724    
  47044000  -4033.4004    
  47045000  -4043.8231    
  47046000  -4058.5157    
  47047000  -4072.1359    
  47048000  -3950.9905    
  47049000  -4105.93      
  47050000  -4066.6093    
  47051000  -4103.2603    
  47052000  -4174.6934    
  47053000  -4067.9169    
  47054000  -4077.3919    
  47055000  -4070.9144    
  47056000  -4193.4354    
  47057000  -4216.9243    
  47058000  -4124.2028    
  47059000  -4161.1689    
  47060000  -4278.1214    
  47061000  -4209.2632    
  47062000  -4105.3662    
  47063000  -4105.639     
  47064000  -4156.7828    
  47065000  -4114.513     
  47066000  -4128.8673    
  47067000  -4164.0552    
  47068000  -4095.1938    
  47069000  -4173.6648    
  47070000  -4238.4496    
  47071000  -4152.81      
  47072000  -4099.5931    
  47073000  -4117.8769    
  47074000  -4113.025     
  47075000  -4110.5424    
  47076000  -4099.154     
  47077000  -4025.7672    
  47078000  -4023.9548    
  47079000  -4089.1766    
  47080000  -4102.6797    
  47081000  -4182.4442    
  47082000  -4151.4065    
  47083000  -4160.7364    
  47084000  -4156.428     
  47085000  -4149.7563    
  47086000  -4210.2898    
  47087000  -4187.7382    
  47088000  -4103.1974    
  47089000  -4217.0748    
  47090000  -4155.6558    
  47091000  -4140.0582    
  47092000  -4190.1837    
  47093000  -4157.2992    
  47094000  -4157.2838    
  47095000  -4155.248     
  47096000  -4223.827     
  47097000  -4140.9143    
  47098000  -4169.2264    
  47099000  -4179.0981    
  47100000  -4221.373     
  47101000  -4273.0538    
  47102000  -4229.389     
  47103000  -4354.9361    
  47104000  -4277.0712    
  47105000  -4205.2789    
  47106000  -4338.9384    
  47107000  -4267.2681    
  47108000  -4238.0739    
  47109000  -4367.7525    
  47110000  -4350.1612    
  47111000  -4381.3673    
  47112000  -4338.4274    
  47113000  -4237.0916    
  47114000  -4244.6545    
  47115000  -4439.9613    
  47116000  -4252.9354    
  47117000  -4312.297     
  47118000  -4449.4011    
  47119000  -4339.3523    
  47120000  -4405.438     
  47121000  -4423.9658    
  47122000  -4302.6919    
  47123000  -4424.8243    
  47124000  -4334.3445    
  47125000  -4302.0458    
  47126000  -4339.4326    
  47127000  -4196.0654    
  47128000  -4306.6249    
  47129000  -4232.6147    
  47130000  -4157.4106    
  47131000  -4316.7192    
  47132000  -4362.9114    
  47133000  -4202.0469    
  47134000  -4191.8153    
  47135000  -4287.6217    
  47136000  -4241.2824    
  47137000  -4279.8498    
  47138000  -4228.8219    
  47139000  -4194.6638    
  47140000  -4235.9072    
  47141000  -4329.3916    
  47142000  -4298.7552    
  47143000  -4335.741     
  47144000  -4316.8192    
  47145000  -4335.2724    
  47146000  -4254.839     
  47147000  -4323.764     
  47148000  -4319.4176    
  47149000  -4196.403     
  47150000  -4296.2144    
  47151000  -4198.052     
  47152000  -4262.1951    
  47153000  -4231.6351    
  47154000  -4323.1681    
  47155000  -4196.8753    
  47156000  -4158.3721    
  47157000  -4173.0395    
  47158000  -4060.2131    
  47159000  -4168.5709    
  47160000  -4243.0834    
  47161000  -4141.2157    
  47162000  -4187.399     
  47163000  -4220.6133    
  47164000  -4102.234     
  47165000  -4204.4301    
  47166000  -4170.1515    
