
units  real
dimension 3
boundary p p p
atom_style full

# Use your latest restart file here
read_restart restart_CAG40.34000000
Reading restart file ...
  restart file = 22 Jul 2025, LAMMPS = 22 Jul 2025
WARNING: Restart file used different # of processors: 64 vs. 80 (src/read_restart.cpp:629)
  restoring atom style full from restart
  orthogonal box = (0 0 0) to (809 809 809)
  4 by 4 by 5 MPI processor grid
  restoring pair style hybrid/overlay from restart
  restoring bond style harmonic from restart
  restoring angle style harmonic from restart
  7680 atoms
  7616 bonds
  7552 angles
Finding 1-2 1-3 1-4 neighbors ...
  special bond factors lj:    0        0        1       
  special bond factors coul:  0        0        0       
     2 = max # of 1-2 neighbors
     2 = max # of 1-3 neighbors
     4 = max # of 1-4 neighbors
     6 = max # of special neighbors
  special bonds CPU = 0.137 seconds
  read_restart CPU = 0.161 seconds

reset_timestep 34000000
restart 1000000 restart_cag40_cont1

###########################
# Recreate force field
###########################

bond_style harmonic
bond_coeff 1 7.5 5.9

angle_style harmonic
angle_coeff 1 5.0 150.0

pair_style hybrid/overlay lj/cut 10.0 base/rna 18.0
pair_coeff * * lj/cut 2.0 8.9089871814
pair_modify pair lj/cut shift yes

pair_coeff 1 1 base/rna 0.00000 3.0 13.8 1.5 0.5 1.8326 0.9425 1.8326 1.1345 #AA
pair_coeff 1 2 base/rna 0.00000 3.0 13.8 1.5 0.5 1.8326 0.9425 1.8326 1.1345 #AC
pair_coeff 1 3 base/rna 0.00000 3.0 13.8 1.5 0.5 1.8326 0.9425 1.8326 1.1345 #AG
pair_coeff 1 4 base/rna 3.33333 3.0 13.8 1.5 0.5 1.8326 0.9425 1.8326 1.1345 #AU
pair_coeff 2 2 base/rna 0.00000 3.0 13.8 1.5 0.5 1.8326 0.9425 1.8326 1.1345 #CC
pair_coeff 2 3 base/rna 5.00000 3.0 13.8 1.5 0.5 1.8326 0.9425 1.8326 1.1345 #CG
pair_coeff 2 4 base/rna 0.00000 3.0 13.8 1.5 0.5 1.8326 0.9425 1.8326 1.1345 #CU
pair_coeff 3 3 base/rna 0.00000 3.0 13.8 1.5 0.5 1.8326 0.9425 1.8326 1.1345 #GG
pair_coeff 3 4 base/rna 3.33333 3.0 13.8 1.5 0.5 1.8326 0.9425 1.8326 1.1345 #GU
pair_coeff 4 4 base/rna 0.00000 3.0 13.8 1.5 0.5 1.8326 0.9425 1.8326 1.1345 #UU

special_bonds lj 0.0 0.0 1.0

neighbor  25.0 bin
comm_style      tiled
timestep        10
neigh_modify    every 10 delay 0

###########################
# Integrator, thermostat, output
###########################

variable temperature9 equal 293
variable randomSeed equal 13652

fix             fxnve   all nve
fix             fxlange all langevin ${temperature9} ${temperature9} 100000.0 ${randomSeed}
fix             fxlange all langevin 293 ${temperature9} 100000.0 ${randomSeed}
fix             fxlange all langevin 293 293 100000.0 ${randomSeed}
fix             fxlange all langevin 293 293 100000.0 13652

# Thermo output (same as main run)
thermo          1000
thermo_style    custom step pe
thermo_modify   flush yes

dump            1 all custom 10000 40CAG_continue1.lammpstrj id mol type xu yu zu
dump_modify     1 sort id

run             100000000
Generated 0 of 6 mixed pair_coeff terms from geometric mixing rule
Neighbor list info ...
  update: every = 10 steps, delay = 0 steps, check = yes
  max neighbors/atom: 2000, page size: 100000
  master list distance cutoff = 43
  ghost atom cutoff = 43
  binsize = 21.5, bins = 38 38 38
  2 neighbor lists, perpetual/occasional/extra = 2 0 0
  (1) pair lj/cut, perpetual
      attributes: half, newton on
      pair build: half/bin/newton
      stencil: half/bin/3d
      bin: standard
  (2) pair base/rna, perpetual
      attributes: half, newton on, cut 43
      pair build: half/bin/newton
      stencil: half/bin/3d
      bin: standard
Per MPI rank memory allocation (min/avg/max) = 7.22 | 7.387 | 7.637 Mbytes
   Step         PotEng    
  34000000  -4141.2642    
  34001000  -3948.1673    
  34002000  -3929.8685    
  34003000  -4064.5245    
  34004000  -4111.0405    
  34005000  -4022.2276    
  34006000  -4055.8496    
  34007000  -4021.0545    
  34008000  -3937.4795    
  34009000  -4054.0735    
  34010000  -4050.0192    
  34011000  -4070.8505    
  34012000  -4093.5279    
  34013000  -4066.1458    
  34014000  -4156.1977    
  34015000  -4064.2255    
  34016000  -4076.0782    
  34017000  -3960.0525    
  34018000  -4113.9604    
  34019000  -4104.8161    
  34020000  -3985.7333    
  34021000  -4009.1112    
  34022000  -3977.5149    
  34023000  -4112.0731    
  34024000  -3986.8551    
  34025000  -4133.301     
  34026000  -4154.8818    
  34027000  -4126.3581    
  34028000  -4025.6737    
  34029000  -3995.7492    
  34030000  -4092.4379    
  34031000  -4090.9998    
  34032000  -4002.4427    
  34033000  -4088.3966    
  34034000  -4172.7517    
  34035000  -4063.0132    
  34036000  -4125.9196    
  34037000  -4037.0389    
  34038000  -4051.0962    
  34039000  -4038.4069    
  34040000  -4053.7034    
  34041000  -4062.9235    
  34042000  -4001.4981    
  34043000  -4097.5413    
  34044000  -4072.3458    
  34045000  -4039.4245    
  34046000  -4124.3408    
  34047000  -4011.6122    
  34048000  -4055.0325    
  34049000  -4146.4731    
  34050000  -4136.5762    
  34051000  -4104.1086    
  34052000  -4140.006     
  34053000  -4141.9541    
  34054000  -4067.7639    
  34055000  -4013.1397    
  34056000  -4030.1691    
  34057000  -4000.8959    
  34058000  -3959.6149    
  34059000  -3969.8091    
  34060000  -3941.029     
  34061000  -3956.9281    
  34062000  -4005.4805    
  34063000  -3925.7723    
  34064000  -3977.3949    
  34065000  -4015.6986    
  34066000  -4074.5289    
  34067000  -4089.1409    
  34068000  -3970.6286    
  34069000  -3989.6202    
  34070000  -3989.03      
  34071000  -4048.7152    
  34072000  -4088.5366    
  34073000  -3970.5277    
  34074000  -4091.6496    
  34075000  -4123.4035    
  34076000  -4049.3219    
  34077000  -4080.513     
  34078000  -4109.6616    
  34079000  -4101.3462    
  34080000  -4027.0078    
  34081000  -3954.9317    
  34082000  -4061.2039    
  34083000  -3988.5335    
  34084000  -4060.9531    
  34085000  -3940.0047    
  34086000  -4094.0175    
  34087000  -4112.7236    
  34088000  -4177.6794    
  34089000  -4036.8877    
  34090000  -3981.1879    
  34091000  -4176.6393    
  34092000  -4108.545     
  34093000  -4027.8251    
  34094000  -4175.1328    
  34095000  -4133.939     
  34096000  -4133.8698    
  34097000  -4104.1758    
  34098000  -4175.9906    
  34099000  -4120.7763    
  34100000  -4167.6325    
  34101000  -4065.1349    
  34102000  -4063.7083    
  34103000  -4133.9657    
  34104000  -3991.532     
  34105000  -4014.592     
  34106000  -4057.9624    
  34107000  -4092.6404    
  34108000  -4037.6275    
  34109000  -4029.833     
  34110000  -4028.9183    
  34111000  -3997.8719    
  34112000  -3932.5083    
  34113000  -4006.6133    
  34114000  -4051.7143    
  34115000  -3878.8651    
  34116000  -4009.7969    
  34117000  -3911.3989    
  34118000  -3945.9424    
  34119000  -4034.357     
  34120000  -3912.8325    
  34121000  -3912.3891    
  34122000  -3948.6006    
  34123000  -3978.4834    
  34124000  -3983.6911    
  34125000  -3967.1082    
  34126000  -4039.74      
  34127000  -4061.164     
  34128000  -3965.2766    
  34129000  -4003.3732    
  34130000  -4042.7549    
  34131000  -4030.666     
  34132000  -3915.1387    
  34133000  -3997.7718    
  34134000  -3968.5201    
  34135000  -3966.8473    
  34136000  -3983.7012    
  34137000  -4062.522     
  34138000  -4017.2597    
  34139000  -4024.4218    
  34140000  -3998.2063    
  34141000  -4017.8519    
  34142000  -4019.5506    
  34143000  -4042.8731    
  34144000  -3948.1235    
  34145000  -4056.1072    
  34146000  -4015.1617    
  34147000  -4042.034     
  34148000  -3943.7501    
  34149000  -4015.3774    
  34150000  -4021.1081    
  34151000  -4012.7506    
  34152000  -4034.8555    
  34153000  -3982.5267    
  34154000  -3969.088     
  34155000  -3969.932     
  34156000  -3922.7055    
  34157000  -3874.84      
  34158000  -3957.2732    
  34159000  -3881.2322    
  34160000  -3900.0168    
  34161000  -3982.0203    
  34162000  -3948.3449    
  34163000  -3946.727     
  34164000  -3979.8337    
  34165000  -4021.7099    
  34166000  -4083.946     
  34167000  -4030.8586    
  34168000  -4085.4806    
  34169000  -3987.4976    
  34170000  -4005.2129    
  34171000  -4062.4156    
  34172000  -3955.4188    
  34173000  -4058.9672    
  34174000  -3992.04      
  34175000  -3973.3452    
  34176000  -3979.0616    
  34177000  -3982.8284    
  34178000  -3990.0138    
  34179000  -4032.1454    
  34180000  -4125.764     
  34181000  -4061.7702    
  34182000  -4029.1537    
  34183000  -4057.9038    
  34184000  -4050.5571    
  34185000  -4070.5133    
  34186000  -3994.0243    
  34187000  -4083.4653    
  34188000  -4059.4108    
  34189000  -4106.8639    
  34190000  -4024.5738    
  34191000  -4129.8282    
  34192000  -4119.264     
  34193000  -4220.0879    
  34194000  -4164.495     
  34195000  -4155.344     
  34196000  -4155.003     
  34197000  -4068.1921    
  34198000  -4221.1929    
  34199000  -4115.0881    
  34200000  -4112.4745    
  34201000  -4135.2502    
  34202000  -4113.1568    
  34203000  -4185.2901    
  34204000  -4233.3145    
  34205000  -4097.2911    
  34206000  -4208.6205    
  34207000  -4225.9972    
  34208000  -4113.3822    
  34209000  -4145.1983    
  34210000  -4244.4726    
  34211000  -4150.4996    
  34212000  -4132.3773    
  34213000  -4045.8093    
  34214000  -4082.507     
  34215000  -4072.8825    
  34216000  -3940.8456    
  34217000  -4072.1981    
  34218000  -4106.5804    
  34219000  -4080.6511    
  34220000  -4012.0815    
  34221000  -4055.6076    
  34222000  -4060.4043    
  34223000  -4107.8501    
  34224000  -4053.8994    
  34225000  -4037.896     
  34226000  -4050.115     
  34227000  -3990.2024    
  34228000  -3963.1092    
  34229000  -4064.0172    
  34230000  -3958.3867    
  34231000  -4042.1571    
  34232000  -3943.0847    
  34233000  -3992.5561    
  34234000  -4092.1537    
  34235000  -4165.7742    
  34236000  -4090.4806    
  34237000  -4035.4062    
  34238000  -4031.0836    
  34239000  -4080.6563    
  34240000  -4021.2742    
  34241000  -3940.1622    
  34242000  -3914.9101    
  34243000  -3906.2062    
  34244000  -4014.2779    
  34245000  -4048.4309    
  34246000  -3947.9053    
  34247000  -4010.8905    
  34248000  -3939.8697    
  34249000  -3955.4237    
  34250000  -3976.156     
  34251000  -4008.2592    
  34252000  -4091.0408    
  34253000  -4111.4798    
  34254000  -4062.487     
  34255000  -4054.8065    
  34256000  -4175.9791    
  34257000  -4099.7275    
  34258000  -4024.0216    
  34259000  -4079.7031    
  34260000  -4100.6958    
  34261000  -4142.364     
  34262000  -4052.1185    
  34263000  -3938.2714    
  34264000  -4049.0742    
  34265000  -4050.0366    
  34266000  -4033.6121    
  34267000  -4093.1788    
  34268000  -4024.4991    
  34269000  -4147.6415    
  34270000  -4037.8604    
  34271000  -4073.3053    
  34272000  -4029.2898    
  34273000  -4017.1847    
  34274000  -4139.8177    
  34275000  -4090.1469    
  34276000  -4108.9403    
  34277000  -4104.2046    
  34278000  -4186.4367    
  34279000  -4092.5801    
  34280000  -4154.2566    
  34281000  -4036.9719    
  34282000  -4074.036     
  34283000  -4063.9695    
  34284000  -4086.6921    
  34285000  -4000.5898    
  34286000  -4146.1313    
  34287000  -4167.319     
  34288000  -4094.2314    
  34289000  -4028.6761    
  34290000  -4080.5472    
  34291000  -4022.2865    
  34292000  -4231.26      
  34293000  -4100.3008    
  34294000  -4152.7955    
  34295000  -4177.1371    
  34296000  -4145.3078    
  34297000  -4057.5399    
  34298000  -4090.4408    
  34299000  -4041.3014    
  34300000  -4072.9167    
  34301000  -4053.0936    
  34302000  -4084.1908    
  34303000  -3998.9658    
  34304000  -4050.9027    
  34305000  -4029.0394    
  34306000  -4074.3764    
  34307000  -4103.5796    
  34308000  -4021.5955    
  34309000  -4107.7172    
  34310000  -4031.4537    
  34311000  -4115.1358    
  34312000  -4118.7847    
  34313000  -4062.8018    
  34314000  -4100.0733    
  34315000  -4025.6898    
  34316000  -4182.7958    
  34317000  -4135.495     
  34318000  -4082.2752    
  34319000  -4114.9626    
  34320000  -4112.4947    
  34321000  -4137.6672    
  34322000  -4081.005     
  34323000  -4015.3274    
  34324000  -4029.8503    
  34325000  -4054.845     
  34326000  -4126.7523    
  34327000  -3997.1178    
  34328000  -4025.2998    
  34329000  -3968.9255    
  34330000  -3941.7996    
  34331000  -4026.9696    
  34332000  -3870.9795    
  34333000  -3959.2403    
  34334000  -3950.7762    
  34335000  -3892.1562    
  34336000  -3861.2459    
  34337000  -3921.6678    
  34338000  -3924.872     
  34339000  -3853.8342    
  34340000  -3889.7186    
  34341000  -3896.7346    
  34342000  -3825.5184    
  34343000  -3728.6098    
  34344000  -3799.0372    
  34345000  -3829.2462    
  34346000  -3843.1671    
  34347000  -3857.5795    
  34348000  -4039.1229    
  34349000  -3977.3567    
  34350000  -3932.0826    
  34351000  -3963.1107    
  34352000  -3864.18      
  34353000  -3833.2101    
  34354000  -3887.6245    
  34355000  -3881.3453    
  34356000  -3859.0059    
  34357000  -3851.5752    
  34358000  -3869.7352    
  34359000  -3944.7615    
  34360000  -3899.0207    
  34361000  -3917.2374    
  34362000  -3953.211     
  34363000  -3949.2285    
  34364000  -4013.4975    
  34365000  -4044.4551    
  34366000  -3986.9187    
  34367000  -3954.1595    
  34368000  -3931.6047    
  34369000  -4013.9834    
  34370000  -4066.3704    
  34371000  -3986.0765    
  34372000  -3877.4483    
  34373000  -3978.294     
  34374000  -3923.4478    
  34375000  -4068.7761    
  34376000  -4004.7937    
  34377000  -4066.4528    
  34378000  -4104.6065    
  34379000  -4097.7443    
  34380000  -4118.0954    
  34381000  -4012.2051    
  34382000  -4014.5292    
  34383000  -4077.0774    
  34384000  -4087.3738    
  34385000  -4003.7956    
  34386000  -4032.9946    
  34387000  -4017.4349    
  34388000  -4157.0196    
  34389000  -4039.0746    
  34390000  -4090.0656    
  34391000  -4159.4345    
  34392000  -4092.4851    
  34393000  -3957.8814    
  34394000  -4080.3916    
  34395000  -4121.2827    
  34396000  -4229.1345    
  34397000  -4164.7095    
  34398000  -4080.6204    
  34399000  -4084.5273    
  34400000  -4129.3605    
  34401000  -4108.6162    
  34402000  -4093.7201    
  34403000  -4106.3191    
  34404000  -4060.2731    
  34405000  -4045.7843    
  34406000  -4121.2999    
  34407000  -3971.4924    
  34408000  -4002.3077    
  34409000  -4066.7682    
  34410000  -3947.902     
  34411000  -3938.7146    
  34412000  -4124.8363    
  34413000  -4087.8393    
  34414000  -4058.1235    
  34415000  -4063.5985    
  34416000  -3993.8631    
  34417000  -3986.317     
  34418000  -4012.9523    
  34419000  -4076.3282    
  34420000  -4024.5579    
  34421000  -4168.8941    
  34422000  -4113.9302    
  34423000  -4010.8769    
  34424000  -4030.4968    
  34425000  -4023.0964    
  34426000  -3982.4089    
  34427000  -4004.5837    
  34428000  -4014.3004    
  34429000  -3961.5749    
  34430000  -3937.3329    
  34431000  -3963.43      
  34432000  -3989.9286    
  34433000  -4071.4026    
  34434000  -4116.7637    
  34435000  -3981.8134    
  34436000  -3935.0694    
  34437000  -4000.6161    
  34438000  -4071.6884    
  34439000  -4147.3075    
  34440000  -4047.3544    
  34441000  -3950.556     
  34442000  -3967.4067    
  34443000  -4020.5722    
  34444000  -3996.1909    
  34445000  -4000.8284    
  34446000  -3983.2435    
  34447000  -3984.4277    
  34448000  -3941.7303    
  34449000  -3933.2082    
  34450000  -3980.8929    
  34451000  -3868.3443    
  34452000  -3984.5412    
  34453000  -3946.7347    
  34454000  -3934.4636    
  34455000  -3847.5319    
  34456000  -3860.3806    
  34457000  -3993.0664    
  34458000  -3921.0311    
  34459000  -3902.1249    
  34460000  -3956.6799    
  34461000  -3904.2605    
  34462000  -4021.4074    
  34463000  -3920.3129    
  34464000  -3855.7142    
  34465000  -3897.628     
  34466000  -3974.2345    
  34467000  -3991.4695    
  34468000  -3969.097     
  34469000  -4040.632     
  34470000  -4057.4974    
  34471000  -4104.4389    
  34472000  -4071.3846    
  34473000  -4058.7761    
  34474000  -3874.6342    
  34475000  -3890.6294    
  34476000  -3930.6889    
  34477000  -3975.1686    
  34478000  -4122.0353    
  34479000  -4003.236     
  34480000  -4014.6575    
  34481000  -3982.3203    
  34482000  -4057.2717    
  34483000  -4093.0014    
  34484000  -4150.6698    
  34485000  -4075.7856    
  34486000  -4107.2029    
  34487000  -4107.4528    
  34488000  -4020.8489    
  34489000  -4014.5492    
  34490000  -4033.3284    
  34491000  -4059.228     
  34492000  -4078.9378    
  34493000  -4109.4713    
  34494000  -4062.7707    
  34495000  -3976.2514    
  34496000  -4081.8586    
  34497000  -4174.5738    
  34498000  -4067.8647    
  34499000  -3994.8838    
  34500000  -4060.8485    
  34501000  -4011.268     
  34502000  -4076.0783    
  34503000  -4127.0367    
  34504000  -4144.7962    
  34505000  -3993.9163    
  34506000  -4054.9867    
  34507000  -4182.0586    
  34508000  -4273.8151    
  34509000  -4152.9347    
  34510000  -4226.0034    
  34511000  -4166.4029    
  34512000  -4155.3499    
  34513000  -4153.3411    
  34514000  -4222.3379    
  34515000  -4143.1472    
  34516000  -4134.6912    
  34517000  -4101.6237    
  34518000  -4197.6724    
  34519000  -4134.5554    
  34520000  -4116.2503    
  34521000  -4164.6401    
  34522000  -4190.4469    
  34523000  -4216.2877    
  34524000  -4227.8386    
  34525000  -4111.8436    
  34526000  -4160.8757    
  34527000  -4159.6465    
  34528000  -4207.2594    
  34529000  -4206.5203    
  34530000  -4197.0806    
  34531000  -4128.794     
  34532000  -4090.5124    
  34533000  -4221.1271    
  34534000  -4192.9463    
  34535000  -4132.5644    
  34536000  -4159.1125    
  34537000  -4212.8678    
  34538000  -4138.9796    
  34539000  -4165.6369    
  34540000  -4225.446     
  34541000  -4164.7414    
  34542000  -4216.3763    
  34543000  -4247.8191    
  34544000  -4247.8816    
  34545000  -4246.7167    
  34546000  -4157.185     
  34547000  -4239.1271    
  34548000  -4080.9254    
  34549000  -4090.2194    
  34550000  -4142.2903    
  34551000  -4093.0283    
  34552000  -4025.0397    
  34553000  -4049.2667    
  34554000  -4113.6447    
  34555000  -3980.5884    
  34556000  -3970.8135    
  34557000  -4003.0876    
  34558000  -4051.0013    
  34559000  -4043.273     
  34560000  -4053.8163    
  34561000  -4057.7062    
  34562000  -3991.0479    
  34563000  -4031.2668    
  34564000  -3855.3625    
  34565000  -3837.7239    
  34566000  -3961.836     
  34567000  -3986.9264    
  34568000  -4058.1359    
  34569000  -4045.9628    
  34570000  -3939.8768    
  34571000  -4054.5658    
  34572000  -3925.817     
  34573000  -3942.9547    
  34574000  -3989.4689    
  34575000  -3885.4264    
  34576000  -3831.2382    
  34577000  -3997.8849    
  34578000  -3953.1198    
  34579000  -3957.621     
  34580000  -3916.9739    
  34581000  -3877.2638    
  34582000  -3965.2052    
  34583000  -3996.8522    
  34584000  -4055.7639    
  34585000  -4036.6158    
  34586000  -3987.2387    
  34587000  -4027.2001    
  34588000  -4025.1118    
  34589000  -4146.0978    
  34590000  -4044.832     
  34591000  -4049.958     
  34592000  -4066.0561    
  34593000  -4132.9969    
  34594000  -4138.6363    
  34595000  -4154.1944    
  34596000  -4106.79      
  34597000  -4100.5901    
  34598000  -4063.9213    
  34599000  -4142.5987    
  34600000  -4119.6736    
  34601000  -4054.8357    
  34602000  -4020.1672    
  34603000  -4128.6622    
  34604000  -4079.7964    
  34605000  -4018.1347    
  34606000  -4062.7809    
  34607000  -4072.0937    
  34608000  -4024.4445    
  34609000  -4103.5421    
  34610000  -4158.7721    
  34611000  -4012.1618    
  34612000  -3955.8617    
  34613000  -3961.6692    
  34614000  -4007.069     
  34615000  -3916.0948    
  34616000  -3983.8866    
  34617000  -3959.4852    
  34618000  -4003.2952    
  34619000  -3908.1068    
  34620000  -4002.2438    
  34621000  -3940.8026    
  34622000  -3973.4039    
  34623000  -4030.6283    
  34624000  -3972.4074    
  34625000  -3946.3961    
  34626000  -3915.4999    
  34627000  -3947.6556    
  34628000  -3873.7399    
  34629000  -3894.8451    
  34630000  -3946.9247    
  34631000  -3893.8208    
  34632000  -3907.4293    
  34633000  -3942.5717    
  34634000  -3980.9475    
  34635000  -3967.3887    
  34636000  -4074.6324    
  34637000  -4027.701     
  34638000  -4023.7924    
  34639000  -4050.3325    
  34640000  -4041.6287    
  34641000  -4005.6013    
  34642000  -3973.4513    
  34643000  -3974.279     
  34644000  -4039.4532    
  34645000  -3958.4654    
  34646000  -4019.5331    
  34647000  -3932.4065    
  34648000  -4153.6724    
  34649000  -4046.2183    
  34650000  -4182.968     
  34651000  -4131.4993    
  34652000  -4101.2427    
  34653000  -4178.1915    
  34654000  -4064.6195    
  34655000  -4134.6551    
  34656000  -4077.2812    
  34657000  -4167.0986    
  34658000  -4169.7637    
  34659000  -4131.5791    
  34660000  -4177.8645    
  34661000  -4095.4771    
  34662000  -4107.3588    
  34663000  -4134.1436    
  34664000  -4136.5292    
  34665000  -4122.3236    
  34666000  -4073.954     
  34667000  -4034.6005    
  34668000  -4077.6065    
  34669000  -4141.584     
  34670000  -4048.6158    
  34671000  -4085.8984    
  34672000  -4122.8121    
  34673000  -4094.595     
  34674000  -4079.615     
  34675000  -4148.3736    
  34676000  -4100.4525    
  34677000  -4140.6697    
  34678000  -4032.3319    
  34679000  -4132.6218    
  34680000  -4149.0118    
  34681000  -4142.1162    
  34682000  -4138.5087    
  34683000  -4149.797     
  34684000  -4127.7237    
  34685000  -4009.6614    
  34686000  -4070.5384    
  34687000  -4060.4661    
  34688000  -4062.4653    
  34689000  -4120.5009    
  34690000  -4140.7223    
  34691000  -4076.6803    
  34692000  -4140.477     
  34693000  -4121.2392    
  34694000  -4193.2412    
  34695000  -4127.2929    
  34696000  -4123.105     
  34697000  -3951.0892    
  34698000  -4055.2721    
  34699000  -4105.2898    
  34700000  -4102.4651    
  34701000  -4070.0919    
  34702000  -4106.2231    
  34703000  -4006.9314    
  34704000  -4129.5215    
  34705000  -4010.5389    
  34706000  -4057.6474    
  34707000  -4125.411     
  34708000  -4066.0102    
  34709000  -4168.1835    
  34710000  -4099.8261    
  34711000  -4026.7819    
  34712000  -3999.8502    
  34713000  -4129.0418    
  34714000  -4058.0885    
  34715000  -4056.8313    
  34716000  -4031.4514    
  34717000  -4038.4944    
  34718000  -4041.4694    
  34719000  -4097.819     
  34720000  -4033.8487    
  34721000  -4081.9643    
  34722000  -4140.115     
  34723000  -4087.3732    
  34724000  -4084.2646    
  34725000  -4011.6093    
  34726000  -4075.2064    
  34727000  -4057.8025    
  34728000  -3988.9552    
  34729000  -4046.8066    
  34730000  -4049.5115    
  34731000  -3906.527     
  34732000  -4053.9446    
  34733000  -3982.8419    
  34734000  -4056.4709    
  34735000  -4036.1712    
  34736000  -4098.3878    
  34737000  -4083.7914    
  34738000  -4037.7956    
  34739000  -4082.7625    
  34740000  -4017.7806    
  34741000  -4006.9435    
  34742000  -4079.9054    
  34743000  -3932.5352    
  34744000  -3990.7355    
  34745000  -4008.5627    
  34746000  -4057.7103    
  34747000  -4114.1573    
  34748000  -4097.6073    
  34749000  -4055.2577    
  34750000  -3999.4346    
  34751000  -4122.5116    
  34752000  -4135.0211    
  34753000  -4030.1738    
  34754000  -4186.1154    
  34755000  -4140.1674    
  34756000  -4046.3919    
  34757000  -4033.9733    
  34758000  -4061.3629    
  34759000  -4085.2114    
  34760000  -3980.6619    
  34761000  -3989.6277    
  34762000  -3943.5179    
  34763000  -4012.3378    
  34764000  -4052.2132    
  34765000  -4037.5009    
  34766000  -4026.1678    
  34767000  -3995.5831    
  34768000  -4016.9311    
  34769000  -4091.4915    
  34770000  -3862.2454    
  34771000  -3949.2353    
  34772000  -3967.0181    
  34773000  -4076.748     
  34774000  -3973.4401    
  34775000  -3978.5727    
  34776000  -3945.7129    
  34777000  -3970.9078    
  34778000  -4086.2435    
  34779000  -4103.8466    
  34780000  -4025.4492    
  34781000  -4066.7585    
  34782000  -4046.3903    
  34783000  -4046.8008    
  34784000  -4087.3116    
  34785000  -4023.4231    
  34786000  -4053.6324    
  34787000  -4034.6703    
  34788000  -4071.7805    
  34789000  -4042.1157    
  34790000  -4024.8067    
  34791000  -4034.2991    
  34792000  -4043.0768    
  34793000  -4052.4894    
  34794000  -4026.4566    
  34795000  -3987.7392    
  34796000  -3917.7437    
  34797000  -4039.4469    
  34798000  -4087.8447    
  34799000  -3883.9388    
  34800000  -3943.1953    
  34801000  -3896.009     
  34802000  -4021.7184    
  34803000  -3962.4035    
  34804000  -4013.7743    
  34805000  -3908.0247    
  34806000  -3978.8245    
  34807000  -3896.4296    
  34808000  -3971.8051    
  34809000  -3948.0265    
  34810000  -3976.0074    
  34811000  -4141.4383    
  34812000  -3930.7364    
  34813000  -4038.1662    
  34814000  -4014.4031    
  34815000  -3907.3969    
  34816000  -3879.9633    
  34817000  -4070.5931    
  34818000  -4034.364     
  34819000  -3999.2124    
  34820000  -4026.0213    
  34821000  -3984.8533    
  34822000  -3927.8215    
  34823000  -3999.5228    
  34824000  -3998.1054    
  34825000  -3986.5943    
  34826000  -3930.3348    
  34827000  -4012.4025    
  34828000  -4012.4239    
  34829000  -4080.2305    
  34830000  -4065.16      
  34831000  -4015.2483    
  34832000  -4003.8195    
  34833000  -4043.6911    
  34834000  -3982.44      
  34835000  -4031.8959    
  34836000  -4001.7687    
  34837000  -3998.1078    
  34838000  -4000.7697    
  34839000  -4019.0905    
  34840000  -3992.6804    
  34841000  -3994.8582    
  34842000  -4123.2827    
  34843000  -4091.3712    
  34844000  -4121.9298    
  34845000  -4058.1934    
  34846000  -4060.5259    
  34847000  -3987.5389    
  34848000  -3988.3004    
  34849000  -3995.1123    
  34850000  -3950.5583    
  34851000  -3869.3918    
  34852000  -3873.2365    
  34853000  -3912.6077    
  34854000  -4060.99      
  34855000  -3985.8601    
  34856000  -3983.3723    
  34857000  -4018.5689    
  34858000  -4156.1634    
  34859000  -3969.971     
  34860000  -4066.6783    
  34861000  -4081.7736    
  34862000  -4082.6336    
  34863000  -4068.7951    
  34864000  -4145.4742    
  34865000  -4112.6642    
  34866000  -4072.4578    
  34867000  -4007.3814    
  34868000  -4034.0572    
  34869000  -4100.7557    
  34870000  -4037.5611    
  34871000  -3952.9429    
  34872000  -4010.3916    
  34873000  -4073.8745    
  34874000  -4160.9206    
  34875000  -4126.8211    
  34876000  -4030.2813    
  34877000  -4008.8937    
  34878000  -4128.3618    
  34879000  -3999.6488    
  34880000  -4140.0607    
  34881000  -4062.9206    
  34882000  -4047.27      
  34883000  -4053.8738    
  34884000  -4076.8148    
  34885000  -4089.8229    
  34886000  -4021.9383    
  34887000  -4010.9938    
  34888000  -4135.8635    
  34889000  -4126.1374    
  34890000  -4138.8822    
  34891000  -4173.1355    
  34892000  -4182.5733    
  34893000  -4127.8742    
  34894000  -4096.1351    
  34895000  -4041.4963    
  34896000  -4013.9303    
  34897000  -4124.4931    
  34898000  -3999.6096    
  34899000  -4038.2064    
  34900000  -4029.886     
  34901000  -4062.6295    
  34902000  -4096.4429    
  34903000  -3987.0565    
  34904000  -4037.824     
  34905000  -4052.963     
  34906000  -4095.674     
  34907000  -3990.1689    
  34908000  -4039.124     
  34909000  -4096.2997    
  34910000  -4038.6143    
  34911000  -4008.9566    
  34912000  -3969.8175    
  34913000  -3937.6302    
  34914000  -3984.7047    
  34915000  -3905.0384    
  34916000  -3912.4757    
  34917000  -3906.7403    
  34918000  -3907.0336    
  34919000  -3910.9005    
  34920000  -3964.328     
  34921000  -3913.7989    
  34922000  -3987.137     
  34923000  -3976.3184    
  34924000  -3945.3973    
  34925000  -3945.3712    
  34926000  -3850.8943    
  34927000  -3868.4122    
  34928000  -3926.065     
  34929000  -4032.9769    
  34930000  -3937.1291    
  34931000  -3963.8564    
  34932000  -4038.1499    
  34933000  -3952.1365    
  34934000  -3946.3335    
  34935000  -4067.0572    
  34936000  -4043.1784    
  34937000  -3974.1114    
  34938000  -4041.5608    
  34939000  -4080.4741    
  34940000  -4062.6137    
  34941000  -3948.2446    
  34942000  -4031.4958    
  34943000  -3882.1291    
  34944000  -3927.9065    
  34945000  -4049.9451    
  34946000  -3981.9967    
  34947000  -4108.7488    
  34948000  -3966.2927    
  34949000  -4011.8473    
  34950000  -4018.4582    
  34951000  -3973.6812    
  34952000  -4004.0827    
  34953000  -3996.8955    
  34954000  -4070.7097    
  34955000  -3988.0812    
  34956000  -3920.3357    
  34957000  -4058.1486    
  34958000  -3923.1952    
  34959000  -3921.044     
  34960000  -3921.1604    
  34961000  -3937.5825    
  34962000  -3894.6498    
  34963000  -3998.2431    
  34964000  -4064.4376    
  34965000  -3990.0943    
  34966000  -4039.0291    
  34967000  -4036.3409    
  34968000  -4097.5764    
  34969000  -4115.8967    
  34970000  -4009.376     
  34971000  -4010.7472    
  34972000  -4060.3769    
  34973000  -4097.3852    
  34974000  -4021.8262    
  34975000  -3960.8121    
  34976000  -4046.7796    
  34977000  -4008.3706    
  34978000  -4024.0209    
  34979000  -4043.2748    
  34980000  -4078.075     
  34981000  -4080.0148    
  34982000  -4143.969     
  34983000  -4003.0271    
  34984000  -4071.6625    
  34985000  -3977.9049    
  34986000  -3997.4829    
  34987000  -4049.6047    
  34988000  -3960.652     
  34989000  -3918.084     
  34990000  -3929.246     
  34991000  -3942.6457    
  34992000  -3934.847     
  34993000  -3928.6953    
  34994000  -4042.8414    
  34995000  -4008.4782    
  34996000  -3999.4468    
  34997000  -3848.137     
  34998000  -3890.2751    
  34999000  -3905.7894    
  35000000  -3936.1698    
  35001000  -3883.4137    
  35002000  -3869.3168    
  35003000  -3885.4437    
  35004000  -3997.5803    
  35005000  -3907.8412    
  35006000  -3922.3033    
  35007000  -3883.2779    
  35008000  -3898.72      
  35009000  -3844.9891    
  35010000  -3885.287     
  35011000  -3858.0179    
  35012000  -4051.9458    
  35013000  -3959.7058    
  35014000  -3998.5549    
  35015000  -3909.6748    
  35016000  -3977.8744    
  35017000  -3893.4792    
  35018000  -3921.9619    
  35019000  -3880.4266    
  35020000  -3942.3931    
  35021000  -3839.3901    
  35022000  -3872.3095    
  35023000  -3889.5389    
  35024000  -3844.2457    
  35025000  -3825.1879    
  35026000  -3882.7638    
  35027000  -3730.7046    
  35028000  -3812.1236    
  35029000  -3705.3276    
  35030000  -3755.7486    
  35031000  -3741.5936    
  35032000  -3761.3613    
  35033000  -3781.4106    
  35034000  -3773.9767    
  35035000  -3854.001     
  35036000  -3761.2019    
  35037000  -3797.033     
  35038000  -3703.5442    
  35039000  -3727.0373    
  35040000  -3779.5538    
  35041000  -3787.8211    
  35042000  -3841.3285    
  35043000  -3819.7832    
  35044000  -3861.6502    
  35045000  -3893.7765    
  35046000  -3946.9844    
  35047000  -3847.4565    
  35048000  -3905.1602    
  35049000  -3707.9831    
  35050000  -3911.9734    
  35051000  -3874.1219    
  35052000  -3910.5159    
  35053000  -3962.3749    
  35054000  -3916.3034    
  35055000  -3919.1151    
  35056000  -3934.5647    
  35057000  -3955.1933    
  35058000  -3874.7578    
  35059000  -3942.3314    
  35060000  -3880.7517    
  35061000  -4002.1518    
  35062000  -3841.4619    
  35063000  -3936.0329    
  35064000  -3883.1633    
  35065000  -3898.5057    
  35066000  -3865.4895    
  35067000  -3879.6628    
  35068000  -3973.1505    
  35069000  -3971.6855    
  35070000  -3906.0709    
  35071000  -3962.7187    
  35072000  -3943.1983    
  35073000  -3876.0886    
  35074000  -3926.2013    
  35075000  -3791.2353    
  35076000  -3841.7072    
  35077000  -3972.1027    
  35078000  -3828.7316    
  35079000  -3834.0853    
  35080000  -3886.7252    
  35081000  -3873.0722    
  35082000  -3886.4375    
  35083000  -3833.1124    
  35084000  -3912.6588    
  35085000  -3881.9173    
  35086000  -3972.0325    
  35087000  -3914.8962    
  35088000  -3822.4346    
  35089000  -3812.2271    
  35090000  -3895.3319    
  35091000  -3975.1593    
  35092000  -4029.363     
  35093000  -3933.415     
  35094000  -4037.9874    
  35095000  -4008.2529    
  35096000  -4054.0417    
  35097000  -4030.7633    
  35098000  -4039.1161    
  35099000  -3989.3673    
  35100000  -3995.5477    
  35101000  -3998.3277    
  35102000  -3986.4567    
  35103000  -3961.8216    
  35104000  -3928.3821    
  35105000  -3939.0919    
  35106000  -3889.0311    
  35107000  -3854.2507    
  35108000  -4002.0118    
  35109000  -3911.4103    
  35110000  -3922.6707    
  35111000  -3936.4175    
  35112000  -4011.7447    
  35113000  -3965.7799    
  35114000  -3955.5083    
  35115000  -3882.4812    
  35116000  -3953.8192    
  35117000  -3885.9811    
  35118000  -3925.602     
  35119000  -3943.9238    
  35120000  -4037.627     
  35121000  -4002.7287    
  35122000  -3935.9683    
  35123000  -4049.0706    
  35124000  -4037.9967    
  35125000  -4048.0172    
  35126000  -3955.6025    
  35127000  -4014.9751    
  35128000  -3913.7956    
  35129000  -4104.1898    
  35130000  -4016.7371    
  35131000  -4071.0385    
  35132000  -3897.9463    
  35133000  -4046.9875    
  35134000  -3939.7475    
  35135000  -3935.3096    
  35136000  -3989.9689    
  35137000  -3876.0792    
  35138000  -3881.1888    
  35139000  -3914.1001    
  35140000  -3905.4484    
  35141000  -3998.367     
  35142000  -4039.0134    
  35143000  -4012.1909    
  35144000  -4080.8458    
  35145000  -4015.8846    
  35146000  -4008.2819    
  35147000  -3941.4746    
  35148000  -3969.9699    
  35149000  -3970.8518    
  35150000  -4025.1317    
  35151000  -3930.5101    
  35152000  -4049.311     
  35153000  -3961.4105    
  35154000  -3981.807     
  35155000  -3972.7936    
  35156000  -4007.6914    
  35157000  -3981.4034    
  35158000  -3917.5946    
  35159000  -3967.628     
  35160000  -3999.2338    
  35161000  -3955.0778    
  35162000  -4069.6447    
  35163000  -3883.7827    
  35164000  -3987.3848    
  35165000  -3992.5577    
  35166000  -3917.1176    
  35167000  -3985.8268    
  35168000  -3966.6405    
  35169000  -3914.6413    
  35170000  -3960.6062    
  35171000  -4049.3211    
  35172000  -4038.6511    
  35173000  -4003.5246    
  35174000  -4078.0015    
  35175000  -3989.7709    
  35176000  -4013.867     
  35177000  -4091.3807    
  35178000  -4013.3504    
  35179000  -3957.617     
  35180000  -4034.0715    
  35181000  -3975.0807    
  35182000  -4006.1994    
  35183000  -4116.3892    
  35184000  -4026.1972    
  35185000  -4119.5825    
  35186000  -4051.3333    
  35187000  -4027.8152    
  35188000  -3968.4458    
  35189000  -4102.9805    
  35190000  -3999.6801    
  35191000  -3999.6711    
  35192000  -4083.921     
  35193000  -4075.5739    
  35194000  -4135.1198    
  35195000  -4080.7969    
  35196000  -4040.039     
  35197000  -4108.9274    
  35198000  -4127.2401    
  35199000  -4035.5246    
  35200000  -4157.5474    
  35201000  -4125.0391    
  35202000  -4124.6933    
  35203000  -4120.8931    
  35204000  -4145.1877    
  35205000  -4076.3004    
  35206000  -4045.1912    
  35207000  -4059.2809    
  35208000  -4132.3827    
  35209000  -4049.4439    
  35210000  -4026.8564    
  35211000  -4091.3692    
  35212000  -4036.6456    
  35213000  -4099.0322    
  35214000  -4018.5346    
  35215000  -4027.4473    
  35216000  -3977.7456    
  35217000  -4041.2447    
  35218000  -4165.5622    
  35219000  -3998.779     
  35220000  -3983.325     
  35221000  -4038.4187    
  35222000  -4100.3173    
  35223000  -4027.4014    
  35224000  -4004.5958    
  35225000  -3922.1545    
  35226000  -3935.0083    
  35227000  -4062.3772    
  35228000  -4012.5846    
  35229000  -3864.1054    
  35230000  -3998.396     
  35231000  -3869.2664    
  35232000  -4011.1542    
  35233000  -3965.7214    
  35234000  -3974.1479    
  35235000  -4143.2665    
  35236000  -3944.5997    
  35237000  -4040.1671    
  35238000  -4091.4191    
  35239000  -4087.8766    
  35240000  -4064.2475    
  35241000  -4001.7992    
  35242000  -3952.1717    
  35243000  -4013.6612    
  35244000  -3967.3024    
  35245000  -3952.8543    
  35246000  -3974.5235    
  35247000  -4020.6947    
  35248000  -4026.3805    
  35249000  -4049.4916    
  35250000  -3981.9241    
  35251000  -3973.2205    
  35252000  -3993.269     
  35253000  -3939.592     
  35254000  -4070.4125    
  35255000  -4038.9346    
  35256000  -4025.8121    
  35257000  -4022.6986    
  35258000  -4085.5522    
  35259000  -4040.1595    
  35260000  -4069.0417    
  35261000  -4130.179     
  35262000  -4104.3743    
  35263000  -4075.5099    
  35264000  -4057.8476    
  35265000  -4108.1928    
  35266000  -4067.5267    
  35267000  -4062.021     
  35268000  -4027.7532    
  35269000  -4092.6966    
  35270000  -4102.627     
  35271000  -4040.7655    
  35272000  -4032.4984    
  35273000  -3998.5233    
  35274000  -4061.931     
  35275000  -3938.9736    
  35276000  -4024.3421    
  35277000  -4030.1728    
  35278000  -3980.0839    
  35279000  -3913.3292    
  35280000  -3967.2626    
  35281000  -3883.048     
  35282000  -3885.6048    
  35283000  -3951.4239    
  35284000  -4048.5309    
  35285000  -4013.9332    
  35286000  -4001.7948    
  35287000  -4040.7109    
  35288000  -4030.5075    
  35289000  -4016.9253    
  35290000  -4047.2398    
  35291000  -4105.4443    
  35292000  -3939.401     
  35293000  -4074.6092    
  35294000  -3981.0368    
  35295000  -3946.2164    
  35296000  -3983.3574    
  35297000  -4008.1298    
  35298000  -3985.7848    
  35299000  -3989.2605    
  35300000  -4003.4681    
  35301000  -3999.3694    
  35302000  -4009.659     
  35303000  -4085.4804    
  35304000  -3995.1455    
  35305000  -4018.2753    
  35306000  -3989.5683    
  35307000  -3899.6189    
  35308000  -4101.7345    
  35309000  -4018.1073    
  35310000  -4134.2389    
  35311000  -4061.5945    
  35312000  -4031.5157    
  35313000  -4015.4067    
  35314000  -3987.1317    
  35315000  -3970.3945    
  35316000  -4003.9522    
  35317000  -4026.8336    
  35318000  -4032.7813    
  35319000  -3963.696     
  35320000  -3891.3259    
  35321000  -4005.7834    
  35322000  -3950.6776    
  35323000  -3995.0521    
  35324000  -3973.6677    
  35325000  -3935.2595    
  35326000  -3923.4069    
  35327000  -4026.1125    
  35328000  -3961.2986    
  35329000  -4032.0737    
  35330000  -4074.308     
  35331000  -4132.8835    
  35332000  -4174.2697    
  35333000  -4142.7979    
  35334000  -4098.7639    
  35335000  -3968.1937    
  35336000  -4040.0246    
  35337000  -3912.3238    
  35338000  -3955.9563    
  35339000  -3912.2357    
  35340000  -3928.7238    
  35341000  -3939.3896    
  35342000  -3899.7678    
  35343000  -3890.8986    
  35344000  -3897.6983    
  35345000  -3931.7294    
  35346000  -3770.1428    
  35347000  -3812.1729    
  35348000  -3922.4549    
  35349000  -3886.3371    
  35350000  -3958.6009    
  35351000  -3935.9275    
  35352000  -3921.4875    
  35353000  -3912.2845    
  35354000  -3917.9683    
  35355000  -3985.6276    
  35356000  -3916.605     
  35357000  -3967.6699    
  35358000  -3921.5327    
  35359000  -3983.5466    
  35360000  -3879.2059    
  35361000  -3977.548     
  35362000  -3879.0031    
  35363000  -3820.1808    
  35364000  -3863.0345    
  35365000  -3820.5496    
  35366000  -3952.2059    
  35367000  -3855.6362    
  35368000  -3914.5374    
  35369000  -3989.3517    
  35370000  -4008.6127    
  35371000  -3979.2742    
  35372000  -4015.3918    
  35373000  -3937.4573    
  35374000  -3900.7983    
  35375000  -3930.0204    
  35376000  -4027.9772    
  35377000  -3962.7726    
  35378000  -3987.7081    
  35379000  -3971.2573    
  35380000  -4023.0955    
  35381000  -4068.717     
  35382000  -4025.8552    
  35383000  -4097.4348    
  35384000  -4079.0736    
  35385000  -4062.5594    
  35386000  -4091.5796    
  35387000  -4028.4847    
  35388000  -4083.8833    
  35389000  -4156.5681    
  35390000  -4043.0354    
  35391000  -4093.5204    
  35392000  -4005.6951    
  35393000  -4137.1994    
  35394000  -4103.4088    
  35395000  -3991.4487    
  35396000  -3991.8712    
  35397000  -3908.0823    
  35398000  -4016.6901    
  35399000  -4006.3714    
  35400000  -4012.948     
  35401000  -4081.4617    
  35402000  -4041.7719    
  35403000  -3982.3109    
  35404000  -4108.1304    
  35405000  -4138.7097    
  35406000  -4162.7649    
  35407000  -4090.4179    
  35408000  -4152.5752    
  35409000  -4170.4694    
  35410000  -4179.4028    
  35411000  -4140.0149    
  35412000  -4219.521     
  35413000  -4186.0481    
  35414000  -4235.6969    
  35415000  -4103.4536    
  35416000  -4134.4715    
  35417000  -4099.7592    
  35418000  -4121.7688    
  35419000  -3963.6996    
  35420000  -3986.4706    
  35421000  -4037.2003    
  35422000  -3993.2422    
  35423000  -4091.1962    
  35424000  -3980.0635    
  35425000  -4090.4926    
  35426000  -3993.5983    
  35427000  -4012.1768    
  35428000  -3933.7309    
  35429000  -3910.5681    
  35430000  -3976.8653    
  35431000  -4040.532     
  35432000  -3994.4462    
  35433000  -4056.4897    
  35434000  -4079.3022    
  35435000  -4036.7464    
  35436000  -4053.2823    
  35437000  -4080.8007    
  35438000  -4019.1898    
  35439000  -4035.5772    
  35440000  -3963.6316    
  35441000  -4016.9041    
  35442000  -3944.85      
  35443000  -4006.7137    
  35444000  -3956.487     
  35445000  -3885.3097    
  35446000  -3921.6384    
  35447000  -3966.6051    
  35448000  -3979.692     
  35449000  -4047.0317    
  35450000  -3977.2268    
  35451000  -3956.7956    
  35452000  -3925.4768    
  35453000  -3944.466     
  35454000  -3919.6832    
  35455000  -3876.3365    
  35456000  -4013.5748    
  35457000  -4043.9322    
  35458000  -4017.6855    
  35459000  -3953.5156    
  35460000  -3955.9116    
  35461000  -3910.5795    
  35462000  -3976.7876    
  35463000  -3964.3865    
  35464000  -3858.3347    
  35465000  -3925.347     
  35466000  -3914.2567    
  35467000  -3850.7892    
  35468000  -3912.8497    
  35469000  -3969.9407    
  35470000  -4001.3327    
  35471000  -3957.1635    
  35472000  -4083.8919    
  35473000  -4069.5466    
  35474000  -4027.3946    
  35475000  -3970.0084    
  35476000  -4046.5897    
  35477000  -4112.7088    
  35478000  -4016.0326    
  35479000  -4067.3074    
  35480000  -4148.2946    
  35481000  -4060.0848    
  35482000  -4148.4602    
  35483000  -4095.1991    
  35484000  -4051.6624    
  35485000  -4043.7608    
  35486000  -4166.8411    
  35487000  -4195.4164    
  35488000  -4056.2574    
  35489000  -4052.4241    
  35490000  -4059.8684    
  35491000  -4040.6071    
  35492000  -4063.8413    
  35493000  -4053.6325    
  35494000  -3968.3491    
  35495000  -4021.2587    
  35496000  -3882.7262    
  35497000  -3926.1039    
  35498000  -3957.718     
  35499000  -4031.6973    
  35500000  -4101.3962    
  35501000  -4105.3313    
  35502000  -3997.7232    
  35503000  -4027.6067    
  35504000  -4056.3918    
  35505000  -3891.4444    
  35506000  -3962.8942    
  35507000  -3923.5244    
  35508000  -3975.259     
  35509000  -3954.4928    
  35510000  -3948.3049    
  35511000  -3937.1161    
  35512000  -3931.3403    
  35513000  -4053.4326    
  35514000  -3789.7818    
  35515000  -3777.693     
  35516000  -3868.2543    
  35517000  -3956.4724    
  35518000  -4036.2612    
  35519000  -3883.4146    
  35520000  -3913.7993    
  35521000  -3832.3787    
  35522000  -3898.0711    
  35523000  -3838.0076    
  35524000  -3881.7346    
  35525000  -3910.8852    
  35526000  -3903.5173    
  35527000  -3984.5302    
  35528000  -3891.8468    
  35529000  -3849.5327    
  35530000  -3901.473     
  35531000  -3817.7571    
  35532000  -3844.1562    
  35533000  -3761.6179    
  35534000  -3953.7161    
  35535000  -3826.2673    
  35536000  -3859.4135    
  35537000  -3899.151     
  35538000  -3807.1571    
  35539000  -3894.3341    
  35540000  -3793.6592    
  35541000  -3806.2752    
  35542000  -3728.1192    
  35543000  -3812.9973    
  35544000  -3725.8344    
  35545000  -3805.8083    
  35546000  -3791.2547    
  35547000  -3740.6892    
  35548000  -3719.5277    
  35549000  -3731.5115    
  35550000  -3741.8584    
  35551000  -3817.6967    
  35552000  -3686.101     
  35553000  -3793.2589    
  35554000  -3776.9383    
  35555000  -3776.0932    
  35556000  -3779.0223    
  35557000  -3809.3348    
  35558000  -3832.0217    
  35559000  -3713.3696    
  35560000  -3761.0019    
  35561000  -3797.1646    
  35562000  -3792.5972    
  35563000  -3797.6481    
  35564000  -3783.1148    
  35565000  -3815.5113    
  35566000  -3907.2924    
  35567000  -3804.8294    
  35568000  -3919.1343    
  35569000  -3909.2118    
  35570000  -3836.7241    
  35571000  -3859.5151    
  35572000  -3838.3214    
  35573000  -3989.5456    
  35574000  -3850.3285    
  35575000  -3875.6332    
  35576000  -3809.2944    
  35577000  -3829.2451    
  35578000  -3896.3969    
  35579000  -3825.7128    
  35580000  -3800.8412    
  35581000  -3871.233     
  35582000  -3851.2767    
  35583000  -3841.8227    
  35584000  -3726.3596    
  35585000  -3807.7317    
  35586000  -3800.9933    
  35587000  -3820.8932    
  35588000  -3933.0147    
  35589000  -3834.2942    
  35590000  -3879.152     
  35591000  -3833.9375    
  35592000  -3945.5226    
  35593000  -3881.8027    
  35594000  -3839.0882    
  35595000  -3974.0315    
  35596000  -3960.7896    
  35597000  -3906.2367    
  35598000  -3921.7986    
  35599000  -3826.0837    
  35600000  -4018.6297    
  35601000  -4004.4257    
  35602000  -3928.6092    
  35603000  -4009.2418    
  35604000  -4009.5787    
  35605000  -3977.2661    
  35606000  -3974.5422    
  35607000  -3909.4647    
  35608000  -3857.5074    
  35609000  -3954.454     
  35610000  -3956.7538    
  35611000  -3875.6427    
  35612000  -3936.6198    
  35613000  -3917.6339    
  35614000  -4004.5038    
  35615000  -3906.3981    
  35616000  -3852.3778    
  35617000  -3741.6713    
  35618000  -3825.9078    
  35619000  -3941.5953    
  35620000  -3844.2477    
  35621000  -3865.2097    
  35622000  -3793.0332    
  35623000  -3825.2392    
  35624000  -3812.0568    
  35625000  -3753.0708    
  35626000  -3841.2758    
  35627000  -3742.6627    
  35628000  -3825.5341    
  35629000  -3737.5934    
  35630000  -3808.3162    
  35631000  -3880.4307    
  35632000  -3869.0943    
  35633000  -3837.9186    
  35634000  -3835.1123    
  35635000  -3856.0061    
  35636000  -3884.1399    
  35637000  -3853.8604    
  35638000  -3882.0351    
  35639000  -3717.9904    
  35640000  -3751.9023    
  35641000  -3766.3138    
  35642000  -3676.7185    
  35643000  -3731.3013    
  35644000  -3854.9287    
  35645000  -3777.2068    
  35646000  -3812.5341    
  35647000  -3836.0113    
  35648000  -3827.4611    
  35649000  -3962.5712    
  35650000  -3818.7037    
  35651000  -3817.0621    
  35652000  -3804.1938    
  35653000  -3795.1566    
  35654000  -3774.6272    
  35655000  -3706.3494    
  35656000  -3775.5338    
  35657000  -3703.9148    
  35658000  -3788.0915    
  35659000  -3809.4757    
  35660000  -3709.6464    
  35661000  -3790.3033    
  35662000  -3784.5108    
  35663000  -3655.9609    
  35664000  -3772.1451    
  35665000  -3899.0829    
  35666000  -3933.7649    
  35667000  -3822.5487    
  35668000  -3856.9326    
  35669000  -3963.7963    
  35670000  -3931.8141    
  35671000  -3902.1685    
  35672000  -3952.594     
  35673000  -3942.0427    
  35674000  -3940.7444    
  35675000  -3934.6036    
  35676000  -3873.2328    
  35677000  -3975.5163    
  35678000  -4093.0192    
  35679000  -4001.5849    
  35680000  -3989.7876    
  35681000  -4032.4537    
  35682000  -4001.0372    
  35683000  -3928.6475    
  35684000  -3908.7695    
  35685000  -3981.1032    
  35686000  -3951.287     
  35687000  -3856.6122    
  35688000  -3903.6021    
  35689000  -3923.1784    
  35690000  -3921.0896    
  35691000  -3995.8992    
  35692000  -3957.6379    
  35693000  -3892.0819    
  35694000  -3871.8822    
  35695000  -3866.4575    
  35696000  -3981.9287    
  35697000  -4000.0446    
  35698000  -3932.9189    
  35699000  -3836.8868    
  35700000  -3960.0898    
  35701000  -3905.1167    
  35702000  -3842.7104    
  35703000  -3930.2327    
  35704000  -3911.0557    
  35705000  -3996.5039    
  35706000  -3991.6959    
  35707000  -3972.633     
  35708000  -4095.8644    
  35709000  -3999.9711    
  35710000  -3995.7915    
  35711000  -3941.5875    
  35712000  -3945.8277    
  35713000  -3866.5319    
  35714000  -3901.984     
  35715000  -3952.2348    
  35716000  -3854.4186    
  35717000  -3872.0611    
  35718000  -3841.317     
  35719000  -3857.6898    
  35720000  -3857.7128    
  35721000  -3815.5189    
  35722000  -3941.5192    
  35723000  -3852.1429    
  35724000  -3888.766     
  35725000  -3862.743     
  35726000  -3922.9979    
  35727000  -3936.0739    
  35728000  -3875.0973    
  35729000  -3840.7288    
  35730000  -3838.5176    
  35731000  -3921.5619    
  35732000  -3886.2303    
  35733000  -3894.8696    
  35734000  -3815.4661    
  35735000  -3891.2168    
  35736000  -3922.2697    
  35737000  -3933.2525    
  35738000  -3959.8657    
  35739000  -3937.0551    
  35740000  -3948.7944    
  35741000  -3898.9378    
  35742000  -3968.4514    
  35743000  -3794.9237    
  35744000  -3908.5164    
  35745000  -3938.7787    
  35746000  -3906.7835    
  35747000  -3901.948     
  35748000  -3945.8367    
  35749000  -3920.196     
  35750000  -3894.9732    
  35751000  -3893.5281    
  35752000  -3783.6039    
  35753000  -3839.1848    
  35754000  -3842.3405    
  35755000  -3736.7259    
  35756000  -3818.7108    
  35757000  -3866.8084    
  35758000  -3843.1358    
  35759000  -3836.9759    
  35760000  -3763.1236    
  35761000  -3747.7211    
  35762000  -3764.9093    
  35763000  -3768.2684    
  35764000  -3835.6346    
  35765000  -3738.0406    
  35766000  -3716.6724    
  35767000  -3641.1389    
  35768000  -3674.2458    
  35769000  -3729.3723    
  35770000  -3713.6687    
  35771000  -3640.0277    
  35772000  -3720.5926    
  35773000  -3726.138     
  35774000  -3718.5344    
  35775000  -3671.2748    
  35776000  -3668.0087    
  35777000  -3584.7028    
  35778000  -3596.3482    
  35779000  -3710.9798    
  35780000  -3634.5111    
  35781000  -3653.1455    
  35782000  -3712.6457    
  35783000  -3823.966     
  35784000  -3834.1321    
  35785000  -3779.7007    
  35786000  -3732.237     
  35787000  -3828.2571    
  35788000  -3863.4393    
  35789000  -3851.2504    
  35790000  -3920.891     
  35791000  -3972.5687    
  35792000  -3894.8471    
  35793000  -3897.7312    
  35794000  -3950.2889    
  35795000  -3958.9533    
  35796000  -4000.7954    
  35797000  -3890.0858    
  35798000  -3920.7287    
  35799000  -3929.6162    
  35800000  -3910.9366    
  35801000  -3957.0945    
  35802000  -3883.6727    
  35803000  -3847.7613    
  35804000  -3916.2696    
  35805000  -3904.8818    
  35806000  -3895.7224    
  35807000  -3846.1001    
  35808000  -3862.294     
  35809000  -3813.8401    
  35810000  -3890.6933    
  35811000  -3915.7362    
  35812000  -3936.5992    
  35813000  -3863.2921    
  35814000  -3829.8347    
  35815000  -3864.4792    
  35816000  -3879.9232    
  35817000  -4040.3808    
  35818000  -3950.2786    
  35819000  -3893.6449    
  35820000  -3879.7569    
  35821000  -3950.2634    
  35822000  -4022.8031    
  35823000  -3906.7536    
  35824000  -3960.9841    
  35825000  -3931.5569    
  35826000  -3958.984     
  35827000  -3893.556     
  35828000  -3960.8808    
  35829000  -3820.1986    
  35830000  -3967.9805    
  35831000  -3775.5552    
  35832000  -3892.8314    
  35833000  -3885.0183    
  35834000  -3926.3758    
  35835000  -3820.15      
  35836000  -3875.1556    
  35837000  -3854.7649    
  35838000  -3814.3951    
  35839000  -3858.8365    
  35840000  -3860.7363    
  35841000  -3775.2214    
  35842000  -3883.7399    
  35843000  -3838.8081    
  35844000  -3810.8729    
  35845000  -3839.6533    
  35846000  -3894.3719    
  35847000  -3848.2298    
  35848000  -3870.1093    
  35849000  -3908.3234    
  35850000  -3853.7032    
  35851000  -3811.8186    
  35852000  -3812.0744    
  35853000  -3829.3351    
  35854000  -3875.1625    
  35855000  -3887.5841    
  35856000  -3827.7012    
  35857000  -3869.79      
  35858000  -3869.7412    
  35859000  -3826.475     
  35860000  -3894.4733    
  35861000  -3906.5513    
  35862000  -3798.1931    
  35863000  -3834.1566    
  35864000  -3715.7089    
  35865000  -3856.1212    
  35866000  -3724.1242    
  35867000  -3730.2423    
  35868000  -3754.1688    
  35869000  -3796.4131    
  35870000  -3746.9658    
  35871000  -3784.3878    
  35872000  -3675.2659    
  35873000  -3740.9405    
  35874000  -3674.5358    
  35875000  -3771.7253    
  35876000  -3775.3153    
  35877000  -3884.1665    
  35878000  -3857.382     
  35879000  -3829.4902    
  35880000  -3964.9418    
  35881000  -3978.7466    
  35882000  -3975.1313    
  35883000  -3901.3604    
  35884000  -3830.9799    
  35885000  -3967.3044    
  35886000  -3946.4472    
  35887000  -3880.0366    
  35888000  -3858.7029    
  35889000  -3809.4447    
  35890000  -3850.7984    
  35891000  -3809.7433    
  35892000  -3754.3694    
  35893000  -3711.6638    
  35894000  -3897.9978    
  35895000  -3811.74      
  35896000  -3697.2317    
  35897000  -3864.866     
  35898000  -3824.76      
  35899000  -3773.0587    
  35900000  -3837.7446    
  35901000  -3897.8824    
  35902000  -3898.0465    
  35903000  -3888.1368    
  35904000  -3820.63      
  35905000  -3751.5597    
  35906000  -3765.4244    
  35907000  -3753.2828    
  35908000  -3707.877     
  35909000  -3770.0184    
  35910000  -3768.4237    
  35911000  -3911.4805    
  35912000  -3798.0167    
  35913000  -3774.5402    
  35914000  -3844.3497    
  35915000  -3667.4079    
  35916000  -3724.1064    
  35917000  -3685.4956    
  35918000  -3810.0553    
  35919000  -3741.9004    
  35920000  -3728.2522    
  35921000  -3769.5303    
  35922000  -3645.4209    
  35923000  -3706.9956    
  35924000  -3781.0201    
  35925000  -3729.5686    
  35926000  -3761.7549    
  35927000  -3759.202     
  35928000  -3730.7253    
  35929000  -3886.1694    
  35930000  -3830.9405    
  35931000  -3836.4923    
  35932000  -3779.6392    
  35933000  -3836.872     
  35934000  -3866.8989    
  35935000  -3867.1475    
  35936000  -3913.1617    
  35937000  -3841.2975    
  35938000  -3853.0276    
  35939000  -3785.1987    
  35940000  -3814.1215    
  35941000  -3797.1538    
  35942000  -3840.5869    
  35943000  -3876.4089    
  35944000  -3775.6328    
  35945000  -3786.7702    
  35946000  -3803.7489    
  35947000  -3828.8373    
  35948000  -3668.1982    
  35949000  -3695.5136    
  35950000  -3665.0304    
  35951000  -3726.245     
  35952000  -3768.7417    
  35953000  -3716.9285    
  35954000  -3703.6783    
  35955000  -3701.2799    
  35956000  -3608.5696    
  35957000  -3647.6491    
  35958000  -3593.236     
  35959000  -3710.9539    
  35960000  -3767.5842    
  35961000  -3738.778     
  35962000  -3751.6853    
  35963000  -3700.0376    
  35964000  -3819.6833    
  35965000  -3840.9943    
  35966000  -3857.5909    
  35967000  -3826.7134    
  35968000  -3908.4087    
  35969000  -3914.9479    
  35970000  -3886.0421    
  35971000  -3903.4013    
  35972000  -3878.3869    
  35973000  -3897.1866    
  35974000  -3913.1413    
  35975000  -3835.9205    
  35976000  -3875.7798    
  35977000  -3806.3276    
  35978000  -3910.5742    
  35979000  -3786.0868    
  35980000  -3931.3507    
  35981000  -3855.0232    
  35982000  -3922.2977    
  35983000  -3863.668     
  35984000  -3885.3941    
  35985000  -3920.3128    
  35986000  -3865.6125    
  35987000  -3986.9032    
  35988000  -3945.8817    
  35989000  -3911.5851    
  35990000  -3982.0607    
  35991000  -3968.8851    
  35992000  -3877.3876    
  35993000  -3935.7014    
  35994000  -3963.2669    
  35995000  -3968.1954    
  35996000  -3879.4486    
  35997000  -3951.8589    
  35998000  -3979.1749    
  35999000  -4005.0677    
  36000000  -3831.3973    
  36001000  -3853.5114    
  36002000  -3842.7374    
  36003000  -3770.4389    
  36004000  -3860.0882    
  36005000  -3770.1741    
  36006000  -3703.257     
  36007000  -3668.7544    
  36008000  -3763.2       
  36009000  -3678.4973    
  36010000  -3739.2016    
  36011000  -3723.0034    
  36012000  -3782.7009    
  36013000  -3782.0309    
  36014000  -3758.3308    
  36015000  -3756.2098    
  36016000  -3700.5819    
  36017000  -3793.8858    
  36018000  -3802.6644    
  36019000  -3804.6165    
  36020000  -3926.4797    
  36021000  -3759.6314    
  36022000  -3828.9719    
  36023000  -3880.466     
  36024000  -3915.8547    
  36025000  -3857.2661    
  36026000  -3921.3127    
  36027000  -3920.5059    
  36028000  -3888.4266    
  36029000  -3967.9411    
  36030000  -3886.4865    
  36031000  -3909.6401    
  36032000  -3913.1078    
  36033000  -3900.3887    
  36034000  -3916.1617    
  36035000  -3770.8548    
  36036000  -3896.7224    
  36037000  -3916.4923    
  36038000  -3976.5429    
  36039000  -3882.2495    
  36040000  -4001.301     
  36041000  -3874.9035    
  36042000  -3907.0743    
  36043000  -3934.2044    
  36044000  -3841.4802    
  36045000  -3938.4744    
  36046000  -3792.4429    
  36047000  -3972.7711    
  36048000  -3806.4338    
  36049000  -3961.706     
  36050000  -3943.277     
  36051000  -3979.7109    
  36052000  -4001.3378    
  36053000  -3987.7052    
  36054000  -3985.554     
  36055000  -3939.5017    
  36056000  -3978.5495    
  36057000  -3937.0175    
  36058000  -4013.0123    
  36059000  -3923.47      
  36060000  -3946.6804    
  36061000  -3962.7679    
  36062000  -3987.3738    
  36063000  -4004.0191    
  36064000  -4006.5273    
  36065000  -4097.3323    
  36066000  -3969.7297    
  36067000  -4150.4681    
  36068000  -4136.7902    
  36069000  -4077.1362    
  36070000  -4116.3382    
  36071000  -4040.9804    
  36072000  -3954.158     
  36073000  -4120.6257    
  36074000  -4147.368     
  36075000  -4143.0417    
  36076000  -4084.1363    
  36077000  -4183.5579    
  36078000  -4087.9611    
  36079000  -4169.8288    
  36080000  -4147.0095    
  36081000  -4145.2988    
  36082000  -4122.2034    
  36083000  -4097.7923    
  36084000  -4179.9179    
  36085000  -4114.8746    
  36086000  -4071.1987    
  36087000  -4070.3582    
  36088000  -4009.1417    
  36089000  -4076.5917    
  36090000  -4101.2588    
  36091000  -4116.1434    
  36092000  -3980.4019    
  36093000  -4021.4051    
  36094000  -3948.9102    
  36095000  -4001.684     
  36096000  -4018.2326    
  36097000  -4043.0228    
  36098000  -4050.77      
  36099000  -4100.1544    
  36100000  -4142.425     
  36101000  -3974.7341    
  36102000  -4011.3918    
  36103000  -4061.0923    
  36104000  -3947.8873    
  36105000  -4011.6593    
  36106000  -3924.8926    
  36107000  -3963.8203    
  36108000  -3918.7589    
  36109000  -3920.4854    
  36110000  -3908.9805    
  36111000  -4034.9221    
  36112000  -3912.8185    
  36113000  -3946.2523    
  36114000  -3955.9203    
  36115000  -3924.1354    
  36116000  -3982.8976    
  36117000  -3905.22      
  36118000  -3898.6952    
  36119000  -3895.2086    
  36120000  -3910.8241    
  36121000  -3988.1577    
  36122000  -3878.8084    
  36123000  -3835.7569    
  36124000  -3859.6676    
  36125000  -3881.2076    
  36126000  -3917.8577    
  36127000  -3945.4071    
  36128000  -3937.8899    
  36129000  -3935.1374    
  36130000  -3958.974     
  36131000  -3976.9094    
  36132000  -3913.4348    
  36133000  -3925.0176    
  36134000  -3937.227     
  36135000  -3896.8357    
  36136000  -3937.8024    
  36137000  -3922.324     
  36138000  -3812.4293    
  36139000  -3953.7031    
  36140000  -3912.7504    
  36141000  -3989.6139    
  36142000  -3917.0668    
  36143000  -3970.2071    
  36144000  -3875.1027    
  36145000  -3882.9941    
  36146000  -3856.4031    
  36147000  -3880.0033    
  36148000  -3898.5959    
  36149000  -3897.411     
  36150000  -3899.4865    
  36151000  -3894.9138    
  36152000  -3934.2016    
  36153000  -3897.1423    
  36154000  -3843.7729    
  36155000  -3958.063     
  36156000  -3821.0942    
  36157000  -3797.9345    
  36158000  -3825.2777    
  36159000  -3864.9914    
  36160000  -3883.968     
  36161000  -3779.0591    
  36162000  -3780.5268    
  36163000  -3827.4801    
  36164000  -3857.3427    
  36165000  -3781.9715    
  36166000  -3861.3021    
  36167000  -3818.1357    
  36168000  -3860.5606    
  36169000  -3993.4425    
  36170000  -3897.7472    
  36171000  -3839.2474    
  36172000  -3924.5519    
  36173000  -3847.0637    
  36174000  -3948.1801    
  36175000  -3757.5549    
  36176000  -3849.6097    
  36177000  -3850.2069    
  36178000  -3757.8644    
  36179000  -3869.5872    
  36180000  -3923.7318    
  36181000  -3958.5439    
  36182000  -3758.877     
  36183000  -3848.9061    
  36184000  -3843.4153    
  36185000  -3849.029     
  36186000  -3902.4723    
  36187000  -3916.7048    
  36188000  -3881.0419    
  36189000  -3939.0558    
  36190000  -3853.2169    
  36191000  -3884.8304    
  36192000  -3942.8071    
  36193000  -3979.5268    
  36194000  -4022.8592    
  36195000  -3859.5761    
  36196000  -3963.7869    
  36197000  -3823.6227    
  36198000  -3883.7472    
  36199000  -3887.2819    
  36200000  -3804.9029    
  36201000  -3819.9136    
  36202000  -3932.7221    
  36203000  -3783.6211    
  36204000  -3867.8273    
  36205000  -3832.3088    
  36206000  -3876.7268    
  36207000  -3886.0944    
  36208000  -3805.8662    
  36209000  -3851.9849    
  36210000  -3877.952     
  36211000  -3807.9612    
  36212000  -3796.7396    
  36213000  -3911.1043    
  36214000  -3893.2652    
  36215000  -3912.8159    
  36216000  -3975.3323    
  36217000  -3911.1875    
  36218000  -3807.7983    
  36219000  -3885.3346    
  36220000  -3923.7963    
  36221000  -3894.9194    
  36222000  -3980.7042    
  36223000  -3968.6932    
  36224000  -3908.498     
  36225000  -3956.1334    
  36226000  -3960.116     
  36227000  -3887.1831    
  36228000  -4035.1712    
  36229000  -4145.6106    
  36230000  -4077.8652    
  36231000  -4016.2573    
  36232000  -4019.3769    
  36233000  -4093.5037    
  36234000  -4061.9104    
  36235000  -4017.8191    
  36236000  -4019.9267    
  36237000  -4005.6443    
  36238000  -3956.6463    
  36239000  -4111.8336    
  36240000  -3987.3944    
  36241000  -4027.251     
  36242000  -4052.0901    
  36243000  -4073.8827    
  36244000  -4132.8887    
  36245000  -4029.5696    
  36246000  -4113.6177    
  36247000  -4084.4615    
  36248000  -3950.0079    
  36249000  -3943.0598    
  36250000  -4172.3745    
  36251000  -4084.4136    
  36252000  -4031.7313    
  36253000  -4066.8184    
  36254000  -4042.9205    
  36255000  -4118.9242    
  36256000  -4128.0678    
  36257000  -4018.2235    
  36258000  -4121.7401    
  36259000  -4066.4903    
  36260000  -3965.9688    
  36261000  -4008.6239    
  36262000  -4091.5894    
  36263000  -4173.1254    
  36264000  -4117.889     
  36265000  -4041.9558    
  36266000  -4001.0322    
  36267000  -4066.3532    
  36268000  -3941.0155    
  36269000  -3975.7561    
  36270000  -3953.8433    
  36271000  -3921.6306    
  36272000  -3996.8092    
  36273000  -4098.5652    
  36274000  -3974.7676    
  36275000  -4025.81      
  36276000  -3893.1621    
  36277000  -3968.7941    
  36278000  -3995.1244    
  36279000  -3933.5679    
  36280000  -3998.9538    
  36281000  -3895.1077    
  36282000  -3943.6029    
  36283000  -3949.3376    
  36284000  -3915.1985    
  36285000  -3914.1888    
  36286000  -3971.0871    
  36287000  -3976.1598    
  36288000  -4003.3142    
  36289000  -3955.1927    
  36290000  -3942.4949    
  36291000  -3886.5599    
  36292000  -3824.6896    
  36293000  -3839.1093    
  36294000  -3939.8822    
  36295000  -3880.4738    
  36296000  -3881.3778    
  36297000  -4024.7956    
  36298000  -3967.2453    
  36299000  -3953.5497    
  36300000  -3867.6626    
  36301000  -3918.9148    
  36302000  -3943.3105    
  36303000  -3918.782     
  36304000  -3832.0624    
  36305000  -3900.7412    
  36306000  -3806.4137    
  36307000  -3902.7561    
  36308000  -3821.174     
  36309000  -3941.2504    
  36310000  -3927.7529    
  36311000  -3992.5452    
  36312000  -3960.6085    
  36313000  -3890.627     
  36314000  -3859.9569    
  36315000  -3842.9793    
  36316000  -3904.1829    
  36317000  -3884.1258    
  36318000  -4030.9966    
  36319000  -3980.9994    
  36320000  -4014.3576    
  36321000  -3856.3476    
  36322000  -3916.6362    
  36323000  -3892.9234    
  36324000  -3889.2489    
  36325000  -3836.7011    
  36326000  -3840.8976    
  36327000  -3812.6956    
  36328000  -3776.1707    
  36329000  -3805.5755    
  36330000  -3806.0888    
  36331000  -3759.5531    
  36332000  -3740.8701    
  36333000  -3690.9213    
  36334000  -3733.4627    
  36335000  -3773.5529    
  36336000  -3829.2143    
  36337000  -3901.7114    
  36338000  -3838.3331    
  36339000  -3851.3003    
  36340000  -3724.7298    
  36341000  -3808.2437    
  36342000  -3800.7204    
  36343000  -3818.5777    
  36344000  -3663.7117    
  36345000  -3689.4839    
  36346000  -3709.8066    
  36347000  -3715.896     
  36348000  -3718.8912    
  36349000  -3798.0082    
  36350000  -3716.6053    
  36351000  -3730.6747    
  36352000  -3720.1809    
  36353000  -3670.2746    
  36354000  -3782.1445    
  36355000  -3710.6782    
  36356000  -3681.9634    
  36357000  -3759.21      
  36358000  -3775.1073    
  36359000  -3818.0209    
  36360000  -3851.2745    
  36361000  -3826.3539    
  36362000  -3788.2031    
  36363000  -3960.5023    
  36364000  -3974.045     
  36365000  -3922.2498    
  36366000  -3933.1217    
  36367000  -3856.9771    
  36368000  -3906.0903    
  36369000  -3830.1562    
  36370000  -3907.5178    
  36371000  -3837.5037    
  36372000  -3895.8235    
  36373000  -3833.2108    
  36374000  -3821.9983    
  36375000  -3833.9974    
  36376000  -3853.8233    
  36377000  -3758.0909    
  36378000  -3782.1844    
  36379000  -3774.7915    
  36380000  -3780.9669    
  36381000  -3911.4998    
  36382000  -3911.4081    
  36383000  -3841.1547    
  36384000  -3755.0966    
  36385000  -3737.4121    
  36386000  -3753.2404    
  36387000  -3772.7462    
  36388000  -3723.649     
  36389000  -3714.4202    
  36390000  -3749.8845    
  36391000  -3701.5662    
  36392000  -3785.1387    
  36393000  -3754.5018    
  36394000  -3792.0671    
  36395000  -3802.2947    
  36396000  -3674.7614    
  36397000  -3738.6509    
  36398000  -3747.8951    
  36399000  -3731.5756    
  36400000  -3710.5739    
  36401000  -3677.4127    
  36402000  -3702.9301    
  36403000  -3645.6762    
  36404000  -3597.873     
  36405000  -3707.5494    
  36406000  -3667.1868    
  36407000  -3668.1383    
  36408000  -3812.3828    
  36409000  -3688.5293    
  36410000  -3852.0331    
  36411000  -3790.4476    
  36412000  -3890.3275    
  36413000  -3792.6346    
  36414000  -3695.775     
  36415000  -3773.0168    
  36416000  -3794.4538    
  36417000  -3860.5331    
  36418000  -3783.4848    
  36419000  -3791.2865    
  36420000  -3730.8436    
  36421000  -3785.8141    
  36422000  -3821.1546    
  36423000  -3854.3646    
  36424000  -3882.3548    
  36425000  -3740.3281    
  36426000  -3876.3791    
  36427000  -3813.0962    
  36428000  -3782.1259    
  36429000  -3884.9551    
  36430000  -3784.2812    
  36431000  -3913.2788    
  36432000  -3850.0085    
  36433000  -3826.7023    
  36434000  -3819.9167    
  36435000  -3772.9442    
  36436000  -3843.9968    
  36437000  -3820.1723    
  36438000  -3806.1343    
  36439000  -3690.8431    
  36440000  -3799.122     
  36441000  -3691.5148    
  36442000  -3681.2495    
  36443000  -3759.4828    
  36444000  -3702.7016    
  36445000  -3638.445     
  36446000  -3761.3578    
  36447000  -3751.472     
  36448000  -3787.7943    
  36449000  -3857.7339    
  36450000  -3674.1725    
  36451000  -3880.6648    
  36452000  -3881.4658    
  36453000  -3875.2538    
  36454000  -3794.7858    
  36455000  -3825.2519    
  36456000  -3787.3148    
  36457000  -3926.4244    
  36458000  -3838.3885    
  36459000  -3850.8556    
  36460000  -3786.6405    
  36461000  -3721.8419    
  36462000  -3818.4323    
  36463000  -3865.8378    
  36464000  -3895.5554    
  36465000  -3825.7947    
  36466000  -3799.6869    
  36467000  -3902.8579    
  36468000  -3751.1122    
  36469000  -3808.6438    
  36470000  -3759.3891    
  36471000  -3771.7426    
  36472000  -3835.6425    
  36473000  -3757.5618    
  36474000  -3782.7981    
  36475000  -3818.2884    
  36476000  -3687.2501    
  36477000  -3695.0896    
  36478000  -3764.5726    
  36479000  -3803.3976    
  36480000  -3778.0601    
  36481000  -3701.1127    
  36482000  -3745.4942    
  36483000  -3738.3063    
  36484000  -3836.6132    
  36485000  -3787.167     
  36486000  -3743.5493    
  36487000  -3761.1092    
  36488000  -3811.0103    
  36489000  -3829.6916    
  36490000  -3773.5506    
  36491000  -3778.7893    
  36492000  -3860.6523    
  36493000  -3726.3563    
  36494000  -3841.8392    
  36495000  -3836.834     
  36496000  -3735.77      
  36497000  -3796.0916    
  36498000  -3753.6386    
  36499000  -3695.8778    
  36500000  -3791.4163    
  36501000  -3740.6508    
  36502000  -3792.4227    
  36503000  -3756.4757    
  36504000  -3683.8104    
  36505000  -3743.7305    
  36506000  -3743.8738    
  36507000  -3683.4008    
  36508000  -3706.8858    
  36509000  -3726.8901    
  36510000  -3682.2007    
  36511000  -3781.0816    
  36512000  -3680.4571    
  36513000  -3727.236     
  36514000  -3689.4313    
  36515000  -3747.9729    
  36516000  -3730.2094    
  36517000  -3767.1047    
  36518000  -3776.4802    
  36519000  -3646.471     
  36520000  -3779.7391    
  36521000  -3704.9897    
  36522000  -3781.2918    
  36523000  -3813.6075    
  36524000  -3706.6128    
  36525000  -3747.4318    
  36526000  -3721.4001    
  36527000  -3626.9799    
  36528000  -3795.4132    
  36529000  -3753.8609    
  36530000  -3672.4467    
  36531000  -3680.8248    
  36532000  -3781.8683    
  36533000  -3733.0194    
  36534000  -3757.5714    
  36535000  -3825.1718    
  36536000  -3861.8497    
  36537000  -3791.7116    
  36538000  -3764.8366    
  36539000  -3828.2816    
  36540000  -3773.7024    
  36541000  -3903.392     
  36542000  -3762.3427    
  36543000  -3873.087     
  36544000  -3881.7252    
  36545000  -3823.1656    
  36546000  -3862.0707    
  36547000  -3847.6343    
  36548000  -3860.5961    
  36549000  -3832.7183    
  36550000  -3708.6045    
  36551000  -3649.0123    
  36552000  -3648.5153    
  36553000  -3649.1755    
  36554000  -3697.505     
  36555000  -3702.2567    
  36556000  -3690.0953    
  36557000  -3687.9841    
  36558000  -3736.3232    
  36559000  -3801.1179    
  36560000  -3728.3851    
  36561000  -3674.4284    
  36562000  -3813.472     
  36563000  -3792.4943    
  36564000  -3716.23      
  36565000  -3731.7539    
  36566000  -3778.3911    
  36567000  -3802.3128    
  36568000  -3735.272     
  36569000  -3706.4438    
  36570000  -3682.9866    
  36571000  -3711.5054    
  36572000  -3764.1369    
  36573000  -3702.6014    
  36574000  -3716.5096    
  36575000  -3802.8695    
  36576000  -3752.6698    
  36577000  -3762.3242    
  36578000  -3647.3867    
  36579000  -3658.0993    
  36580000  -3615.071     
  36581000  -3603.2618    
  36582000  -3665.0944    
  36583000  -3690.968     
  36584000  -3687.6497    
  36585000  -3697.221     
  36586000  -3754.8956    
  36587000  -3737.8754    
  36588000  -3668.3599    
  36589000  -3590.4093    
  36590000  -3671.803     
  36591000  -3703.8343    
  36592000  -3673.5312    
  36593000  -3700.8566    
  36594000  -3695.7545    
  36595000  -3663.4392    
  36596000  -3624.8218    
  36597000  -3655.0227    
  36598000  -3634.7659    
  36599000  -3645.547     
  36600000  -3681.1892    
  36601000  -3773.4236    
  36602000  -3704.0004    
  36603000  -3699.1312    
  36604000  -3687.3949    
  36605000  -3803.2228    
  36606000  -3760.013     
  36607000  -3747.969     
  36608000  -3788.0057    
  36609000  -3771.4426    
  36610000  -3803.2784    
  36611000  -3774.96      
  36612000  -3759.108     
  36613000  -3850.0871    
  36614000  -3759.2077    
  36615000  -3806.1796    
  36616000  -3778.01      
  36617000  -3735.4172    
  36618000  -3779.5223    
  36619000  -3668.3096    
  36620000  -3718.3628    
  36621000  -3733.0603    
  36622000  -3736.2795    
  36623000  -3815.6041    
  36624000  -3697.6745    
  36625000  -3741.5204    
  36626000  -3802.0623    
  36627000  -3703.5695    
  36628000  -3803.9783    
  36629000  -3740.6828    
  36630000  -3769.2753    
  36631000  -3773.3646    
  36632000  -3841.8144    
  36633000  -3814.9958    
  36634000  -3758.7274    
  36635000  -3742.0731    
  36636000  -3771.6138    
  36637000  -3758.134     
  36638000  -3750.2144    
  36639000  -3738.0339    
  36640000  -3769.3822    
  36641000  -3721.5021    
  36642000  -3727.6448    
  36643000  -3769.919     
  36644000  -3814.6465    
  36645000  -3893.8311    
  36646000  -3736.5821    
  36647000  -3834.5271    
  36648000  -3774.5661    
  36649000  -3701.0627    
  36650000  -3865.677     
  36651000  -3853.1474    
  36652000  -3820.1601    
  36653000  -3849.7241    
  36654000  -3797.6995    
  36655000  -4020.6056    
  36656000  -3832.9796    
  36657000  -3849.3795    
  36658000  -3868.6532    
  36659000  -3863.7401    
  36660000  -3931.6758    
  36661000  -3777.9852    
  36662000  -3955.6878    
  36663000  -3856.6421    
  36664000  -3813.8745    
  36665000  -3839.1462    
  36666000  -3868.6185    
  36667000  -3848.2692    
  36668000  -3776.8975    
  36669000  -3793.0058    
  36670000  -3787.9114    
  36671000  -3838.381     
  36672000  -3849.1622    
  36673000  -3862.5785    
  36674000  -3795.3883    
  36675000  -3810.4244    
  36676000  -3746.1621    
  36677000  -3786.6481    
  36678000  -3801.6712    
  36679000  -3849.7947    
  36680000  -3740.7561    
  36681000  -3894.7417    
  36682000  -3768.1099    
  36683000  -3741.5314    
  36684000  -3813.4604    
  36685000  -3707.0887    
  36686000  -3866.6744    
  36687000  -3822.6481    
  36688000  -3763.5116    
  36689000  -3861.1466    
  36690000  -3823.2535    
  36691000  -3821.8318    
  36692000  -3909.5659    
  36693000  -3757.9117    
  36694000  -3784.9447    
  36695000  -3807.9898    
  36696000  -3779.5064    
  36697000  -3730.6793    
  36698000  -3727.114     
  36699000  -3764.0391    
  36700000  -3810.533     
  36701000  -3710.3274    
  36702000  -3757.2842    
  36703000  -3655.0294    
  36704000  -3690.1177    
  36705000  -3726.1297    
  36706000  -3637.5738    
  36707000  -3668.6714    
  36708000  -3669.3136    
  36709000  -3730.4605    
  36710000  -3642.4822    
  36711000  -3635.6847    
  36712000  -3767.1129    
  36713000  -3743.857     
  36714000  -3734.7508    
  36715000  -3734.1157    
  36716000  -3841.0999    
  36717000  -3785.9957    
  36718000  -3769.4975    
  36719000  -3834.9296    
  36720000  -3785.8382    
  36721000  -3690.188     
  36722000  -3699.7287    
  36723000  -3689.9297    
  36724000  -3741.3976    
  36725000  -3744.6673    
  36726000  -3837.7695    
  36727000  -3817.537     
  36728000  -3813.636     
  36729000  -3743.3251    
  36730000  -3826.2434    
  36731000  -3877.1657    
  36732000  -3891.9282    
  36733000  -3949.5452    
  36734000  -3880.7746    
  36735000  -3853.6042    
  36736000  -3807.001     
  36737000  -3880.9649    
  36738000  -3841.783     
  36739000  -3811.023     
  36740000  -3798.7986    
  36741000  -3886.4616    
  36742000  -3898.9565    
  36743000  -3797.5372    
  36744000  -3815.5733    
  36745000  -3892.1155    
  36746000  -3894.2982    
  36747000  -3863.4984    
  36748000  -3951.4304    
  36749000  -3889.7067    
  36750000  -3897.1889    
  36751000  -3957.5799    
  36752000  -3985.2301    
  36753000  -4019.1685    
  36754000  -3839.893     
  36755000  -3883.2555    
  36756000  -3997.751     
  36757000  -3946.3089    
  36758000  -3965.4214    
  36759000  -3913.5639    
  36760000  -3907.9661    
  36761000  -4009.4408    
  36762000  -3920.9352    
  36763000  -3911.3534    
  36764000  -3825.3299    
  36765000  -3977.6455    
  36766000  -3819.3129    
  36767000  -3951.2869    
  36768000  -3875.0468    
  36769000  -3937.4058    
  36770000  -3931.9619    
  36771000  -4019.0198    
  36772000  -3950.4536    
  36773000  -3966.8663    
  36774000  -3903.1416    
  36775000  -3973.2467    
  36776000  -3935.0114    
  36777000  -3869.696     
  36778000  -3899.6956    
  36779000  -3977.996     
  36780000  -3902.4166    
  36781000  -3933.3789    
  36782000  -3911.718     
  36783000  -3916.6674    
  36784000  -3989.32      
  36785000  -3870.3862    
  36786000  -3822.9765    
  36787000  -3811.8527    
  36788000  -3792.3023    
  36789000  -3830.5305    
  36790000  -3876.3261    
  36791000  -3890.354     
  36792000  -3880.5175    
  36793000  -3833.9557    
  36794000  -3857.6127    
  36795000  -3960.552     
  36796000  -3891.4879    
  36797000  -3930.5394    
  36798000  -3906.6697    
  36799000  -3856.0475    
  36800000  -3825.1014    
  36801000  -3854.1845    
  36802000  -3895.011     
  36803000  -3810.1636    
  36804000  -3914.0469    
  36805000  -3937.1397    
  36806000  -3963.4816    
  36807000  -3952.5204    
  36808000  -3921.9502    
  36809000  -3954.6665    
  36810000  -3914.1906    
  36811000  -4011.2533    
  36812000  -3955.3205    
  36813000  -4059.9668    
  36814000  -4023.4354    
  36815000  -3960.402     
  36816000  -3935.1847    
  36817000  -3925.5701    
  36818000  -3931.0965    
  36819000  -4012.1495    
  36820000  -3866.6357    
  36821000  -3882.0857    
  36822000  -3971.7276    
  36823000  -4028.2401    
  36824000  -3903.6162    
  36825000  -3788.6358    
  36826000  -3807.282     
  36827000  -3887.2658    
  36828000  -3939.2216    
  36829000  -3924.4663    
  36830000  -3979.4145    
  36831000  -3904.2708    
  36832000  -4023.8208    
  36833000  -4000.6818    
  36834000  -3851.4243    
  36835000  -3997.3598    
  36836000  -3958.348     
  36837000  -3884.9647    
  36838000  -4006.9071    
  36839000  -3984.9195    
  36840000  -3968.9425    
  36841000  -3999.2546    
  36842000  -3982.2239    
  36843000  -3893.7064    
  36844000  -4025.5249    
  36845000  -3979.3056    
  36846000  -4081.4037    
  36847000  -3970.2915    
  36848000  -3900.1827    
  36849000  -4002.1079    
  36850000  -3943.2517    
  36851000  -3936.7556    
  36852000  -3842.459     
  36853000  -3779.577     
  36854000  -3863.4646    
  36855000  -3929.9843    
  36856000  -3926.496     
  36857000  -3852.4805    
  36858000  -3913.5162    
  36859000  -3951.3494    
  36860000  -3822.0587    
  36861000  -3900.6679    
  36862000  -3995.2169    
  36863000  -3944.7076    
  36864000  -3927.2935    
  36865000  -3983.3215    
  36866000  -3908.6527    
  36867000  -3880.0738    
  36868000  -3877.7573    
  36869000  -3889.7063    
  36870000  -3939.7837    
  36871000  -3919.3647    
  36872000  -3876.7856    
  36873000  -3823.4573    
  36874000  -3956.5964    
  36875000  -3882.7044    
  36876000  -3940.6818    
  36877000  -3910.2479    
  36878000  -3879.0521    
  36879000  -3885.281     
  36880000  -3871.0317    
  36881000  -3835.395     
  36882000  -3830.7092    
  36883000  -3860.9334    
  36884000  -3919.547     
  36885000  -3885.7958    
  36886000  -3972.8517    
  36887000  -3892.5102    
  36888000  -3867.8315    
  36889000  -3820.6118    
  36890000  -3865.4117    
  36891000  -3881.9469    
  36892000  -3860.7346    
  36893000  -3863.1726    
  36894000  -3865.7776    
  36895000  -3863.593     
  36896000  -3789.4137    
  36897000  -3849.0168    
  36898000  -3830.191     
  36899000  -3834.0325    
  36900000  -3805.2441    
  36901000  -3857.5534    
  36902000  -3673.7663    
  36903000  -3793.8795    
  36904000  -3834.5618    
  36905000  -3837.5502    
  36906000  -3822.9595    
  36907000  -3863.8436    
  36908000  -4010.5913    
  36909000  -3952.7229    
  36910000  -3933.7304    
  36911000  -3987.9045    
  36912000  -3865.8558    
  36913000  -3834.2207    
  36914000  -3785.5412    
  36915000  -3811.7799    
  36916000  -3880.1121    
  36917000  -3928.4527    
  36918000  -3954.4982    
  36919000  -3931.695     
  36920000  -3978.6873    
  36921000  -3938.985     
  36922000  -3831.367     
  36923000  -3893.0023    
  36924000  -3917.3008    
  36925000  -3922.6244    
  36926000  -3910.1925    
  36927000  -4004.6453    
  36928000  -3987.3153    
  36929000  -3935.0071    
  36930000  -4014.7331    
  36931000  -3954.6952    
  36932000  -4088.8746    
  36933000  -4046.0914    
  36934000  -4080.039     
  36935000  -4052.8324    
  36936000  -4091.6173    
  36937000  -4097.1296    
  36938000  -4133.4991    
  36939000  -4107.1854    
  36940000  -4172.8315    
  36941000  -4030.324     
  36942000  -4073.0877    
  36943000  -4069.0067    
  36944000  -4026.6831    
  36945000  -4021.8556    
  36946000  -3955.9705    
  36947000  -4125.1813    
  36948000  -4157.1683    
  36949000  -4140.5444    
  36950000  -4148.3665    
  36951000  -4216.141     
  36952000  -4244.5346    
  36953000  -4244.323     
  36954000  -4272.6572    
  36955000  -4220.1527    
  36956000  -4269.7539    
  36957000  -4201.6174    
  36958000  -4172.2689    
  36959000  -4166.6003    
  36960000  -4102.4285    
  36961000  -4189.4297    
  36962000  -4318.5513    
  36963000  -4207.623     
  36964000  -4241.5169    
  36965000  -4131.9123    
  36966000  -4210.4689    
  36967000  -4145.1785    
  36968000  -4085.8236    
  36969000  -4062.9095    
  36970000  -4154.4585    
  36971000  -4318.479     
  36972000  -4100.6033    
  36973000  -4122.9775    
  36974000  -4185.7666    
  36975000  -4157.465     
  36976000  -4047.2159    
  36977000  -4110.711     
  36978000  -4054.0826    
  36979000  -3989.5109    
  36980000  -4066.2558    
  36981000  -4070.8004    
  36982000  -4104.6268    
  36983000  -4023.9443    
  36984000  -4123.8411    
  36985000  -4014.0539    
  36986000  -4037.4455    
  36987000  -3962.9883    
  36988000  -3998.202     
  36989000  -4053.4818    
  36990000  -4083.6012    
  36991000  -4019.9637    
  36992000  -3990.2719    
  36993000  -3996.5626    
  36994000  -4020.9281    
  36995000  -4041.1117    
  36996000  -4025.4666    
  36997000  -4034.2792    
  36998000  -4103.8608    
  36999000  -4036.6676    
  37000000  -3990.5761    
  37001000  -3891.1148    
  37002000  -3999.7278    
  37003000  -3975.8517    
  37004000  -3963.3072    
  37005000  -3842.7734    
  37006000  -3966.0586    
  37007000  -3910.2754    
  37008000  -3981.6716    
  37009000  -3953.7404    
  37010000  -3977.4716    
  37011000  -3947.529     
  37012000  -3967.8186    
  37013000  -3872.3949    
  37014000  -3957.0138    
  37015000  -3884.2564    
  37016000  -3990.1031    
  37017000  -3888.1591    
  37018000  -3967.5003    
  37019000  -3920.6743    
  37020000  -3877.3439    
  37021000  -3942.226     
  37022000  -3907.6081    
  37023000  -3825.5871    
  37024000  -3853.816     
  37025000  -3841.9924    
  37026000  -3823.3818    
  37027000  -3788.321     
  37028000  -3929.4327    
  37029000  -3902.0161    
  37030000  -3956.11      
  37031000  -3873.4571    
  37032000  -3952.4976    
  37033000  -3962.3597    
  37034000  -3998.5162    
  37035000  -3981.8208    
  37036000  -3986.7669    
  37037000  -3970.9559    
  37038000  -3893.3694    
  37039000  -3811.9566    
  37040000  -3916.5977    
  37041000  -3780.9876    
  37042000  -3825.6718    
  37043000  -3853.1498    
  37044000  -3835.4585    
  37045000  -3951.7834    
  37046000  -3875.9569    
  37047000  -3885.7314    
  37048000  -3946.67      
  37049000  -3855.6847    
  37050000  -3867.4845    
  37051000  -3874.8868    
  37052000  -3940.3025    
  37053000  -3962.0457    
  37054000  -3931.9762    
  37055000  -3943.9419    
  37056000  -4013.4259    
  37057000  -3986.6348    
  37058000  -3922.8422    
  37059000  -4023.425     
  37060000  -4055.3485    
  37061000  -3970.2331    
  37062000  -4073.7251    
  37063000  -3924.5318    
  37064000  -3935.7185    
  37065000  -3963.5986    
  37066000  -3919.7106    
  37067000  -3918.0366    
  37068000  -4012.3353    
  37069000  -3894.0971    
  37070000  -3902.2734    
  37071000  -3953.0148    
  37072000  -3944.2465    
  37073000  -3889.9396    
  37074000  -3967.5248    
  37075000  -3876.8498    
  37076000  -4022.7685    
  37077000  -3897.944     
  37078000  -3884.8485    
  37079000  -3868.3413    
  37080000  -3846.5227    
  37081000  -3881.1465    
  37082000  -3891.4987    
  37083000  -3801.5229    
  37084000  -3799.4493    
  37085000  -3820.5343    
  37086000  -3883.0602    
  37087000  -3917.2345    
  37088000  -3870.3166    
  37089000  -3894.9556    
  37090000  -3837.9525    
  37091000  -3810.5851    
  37092000  -3844.8715    
  37093000  -3930.7511    
  37094000  -3920.4458    
  37095000  -3954.8499    
  37096000  -3887.08      
  37097000  -3930.2502    
  37098000  -3981.2621    
  37099000  -4020.8127    
  37100000  -3924.8756    
  37101000  -3944.8498    
  37102000  -3918.3332    
  37103000  -3975.9174    
  37104000  -4058.5335    
  37105000  -3969.379     
  37106000  -4017.4748    
  37107000  -3952.0973    
  37108000  -3995.9296    
  37109000  -4003.3209    
  37110000  -4014.2067    
  37111000  -3937.0369    
  37112000  -3934.7919    
  37113000  -3907.0754    
  37114000  -3937.4671    
  37115000  -3982.0361    
  37116000  -3872.6079    
  37117000  -3907.2954    
  37118000  -4024.0954    
  37119000  -3983.0949    
  37120000  -3924.6001    
  37121000  -3988.4966    
  37122000  -3937.3112    
  37123000  -4022.8391    
  37124000  -3975.3879    
  37125000  -4036.4955    
  37126000  -4053.114     
  37127000  -3998.4615    
  37128000  -4051.7179    
  37129000  -4063.4424    
  37130000  -3993.1122    
  37131000  -4043.6227    
  37132000  -4064.6279    
  37133000  -4022.4934    
  37134000  -3977.5178    
  37135000  -4004.7165    
  37136000  -3886.4352    
  37137000  -3963.4955    
  37138000  -3991.534     
  37139000  -3978.3115    
  37140000  -3901.5797    
  37141000  -4006.973     
  37142000  -3958.5797    
  37143000  -3992.5743    
  37144000  -3955.3135    
  37145000  -4042.5274    
  37146000  -3956.8975    
  37147000  -3925.8972    
  37148000  -3926.3193    
  37149000  -4028.6656    
  37150000  -3894.5371    
  37151000  -3942.2173    
  37152000  -3860.8581    
  37153000  -3963.6438    
  37154000  -4024.1027    
  37155000  -3949.4261    
  37156000  -3945.587     
  37157000  -3876.2627    
  37158000  -4005.9645    
  37159000  -3999.1764    
  37160000  -3969.4096    
  37161000  -4055.3054    
  37162000  -4048.2414    
  37163000  -4080.004     
  37164000  -3993.748     
  37165000  -3942.0951    
  37166000  -3977.2403    
  37167000  -3864.4183    
  37168000  -4041.7859    
  37169000  -3940.1889    
  37170000  -3858.3124    
  37171000  -3936.8717    
  37172000  -4025.3063    
  37173000  -4033.4001    
  37174000  -3987.2021    
  37175000  -3981.4767    
  37176000  -3915.1905    
  37177000  -3990.3194    
  37178000  -3972.9749    
  37179000  -3890.4165    
  37180000  -4059.6082    
  37181000  -3917.7918    
  37182000  -3960.9363    
  37183000  -4028.6485    
  37184000  -4104.6566    
  37185000  -3999.2084    
  37186000  -4004.9084    
  37187000  -3909.6128    
  37188000  -4011.3246    
  37189000  -4019.5364    
  37190000  -3866.6654    
  37191000  -3959.7841    
  37192000  -3866.472     
  37193000  -3867.0643    
  37194000  -3790.0817    
  37195000  -3824.4849    
  37196000  -3819.9631    
  37197000  -3869.6451    
  37198000  -3827.5574    
  37199000  -3850.5232    
  37200000  -3834.7485    
  37201000  -3808.2231    
  37202000  -3900.9028    
  37203000  -3867.5834    
  37204000  -3870.8377    
  37205000  -3939.4902    
  37206000  -3921.5419    
  37207000  -3883.0513    
  37208000  -3981.3448    
  37209000  -4063.2507    
  37210000  -3968.2485    
  37211000  -3922.0471    
  37212000  -3951.6762    
  37213000  -3928.6016    
  37214000  -3942.7648    
  37215000  -3877.5044    
  37216000  -3931.5027    
  37217000  -4059.562     
  37218000  -3995.2353    
  37219000  -3973.5444    
  37220000  -3979.1567    
  37221000  -3927.5771    
  37222000  -3946.0555    
  37223000  -3953.8993    
  37224000  -4043.0714    
  37225000  -3981.7334    
  37226000  -4109.6311    
  37227000  -3972.3949    
  37228000  -4016.866     
  37229000  -3967.7762    
  37230000  -4026.8492    
  37231000  -3998.3553    
  37232000  -3982.3896    
  37233000  -4032.5037    
  37234000  -4158.9922    
  37235000  -4102.0015    
  37236000  -4007.21      
  37237000  -4072.618     
  37238000  -4018.9132    
  37239000  -4007.3449    
  37240000  -3860.9189    
  37241000  -3964.2966    
  37242000  -3858.0715    
  37243000  -3946.2382    
  37244000  -3987.376     
  37245000  -4037.3796    
  37246000  -4029.0283    
  37247000  -4000.7617    
  37248000  -4024.1385    
  37249000  -4024.5278    
  37250000  -4094.3703    
  37251000  -4030.4531    
  37252000  -4036.9651    
  37253000  -4081.9079    
  37254000  -4104.5408    
  37255000  -4032.0319    
  37256000  -4075.8121    
  37257000  -4060.7077    
  37258000  -4020.5319    
  37259000  -4060.8457    
  37260000  -4121.3779    
  37261000  -4146.8185    
  37262000  -3977.1961    
  37263000  -4049.7439    
  37264000  -4035.3024    
  37265000  -4008.6854    
  37266000  -4125.7274    
  37267000  -4100.6429    
  37268000  -3970.3631    
  37269000  -4027.8048    
  37270000  -4018.6355    
  37271000  -4056.6774    
  37272000  -4048.5097    
  37273000  -4062.7407    
  37274000  -4048.6165    
  37275000  -3916.6438    
  37276000  -3973.9825    
  37277000  -4060.625     
  37278000  -4030.6209    
  37279000  -3916.7399    
  37280000  -4001.9098    
  37281000  -3953.8916    
  37282000  -4001.782     
  37283000  -3917.5202    
  37284000  -3927.5614    
  37285000  -3871.1031    
  37286000  -3849.1761    
  37287000  -3859.9878    
  37288000  -3813.4241    
  37289000  -3878.3698    
  37290000  -3890.6256    
  37291000  -3950.7691    
  37292000  -3992.5891    
  37293000  -3992.9832    
  37294000  -3973.8688    
  37295000  -3898.5564    
  37296000  -3970.8697    
  37297000  -4042.0541    
  37298000  -4129.8799    
  37299000  -4030.1498    
  37300000  -4140.1382    
  37301000  -4150.5328    
  37302000  -4079.7549    
  37303000  -4206.1928    
  37304000  -4048.194     
  37305000  -4077.6292    
  37306000  -4040.9002    
  37307000  -4007.3997    
  37308000  -3943.3274    
  37309000  -3881.4959    
  37310000  -3926.8338    
  37311000  -3927.8396    
  37312000  -3999.3645    
  37313000  -3927.9755    
  37314000  -4006.8307    
  37315000  -3994.7229    
  37316000  -3958.5432    
  37317000  -3853.3462    
  37318000  -3922.9663    
  37319000  -3900.8311    
  37320000  -3891.1299    
  37321000  -3959.1343    
  37322000  -3952.1682    
  37323000  -3970.6904    
  37324000  -3909.0263    
  37325000  -3901.806     
  37326000  -3989.0251    
  37327000  -4035.6004    
  37328000  -3877.0037    
  37329000  -3963.1275    
  37330000  -3937.1656    
  37331000  -3963.5843    
  37332000  -3870.6478    
  37333000  -3878.2451    
  37334000  -3835.8033    
  37335000  -3848.7301    
  37336000  -3887.3911    
  37337000  -3968.7301    
  37338000  -3864.2279    
  37339000  -3811.7449    
  37340000  -3798.2359    
  37341000  -3906.1479    
  37342000  -3857.0776    
  37343000  -3941.702     
  37344000  -3936.84      
  37345000  -4000.204     
  37346000  -4015.1451    
  37347000  -3999.2653    
  37348000  -3865.4736    
  37349000  -3950.0453    
  37350000  -3881.5604    
  37351000  -3950.0243    
  37352000  -3881.8149    
  37353000  -4030.4164    
  37354000  -3957.0294    
  37355000  -3944.9843    
  37356000  -3793.063     
  37357000  -3795.0609    
  37358000  -3789.3187    
  37359000  -3839.3449    
  37360000  -3788.2946    
  37361000  -3799.2147    
  37362000  -3854.1285    
  37363000  -3852.8003    
  37364000  -3818.6162    
  37365000  -3700.6116    
  37366000  -3782.2216    
  37367000  -3861.7724    
  37368000  -3856.9029    
  37369000  -3821.4138    
  37370000  -3922.3479    
  37371000  -3824.214     
  37372000  -3954.3721    
  37373000  -4025.8562    
  37374000  -3854.3839    
  37375000  -3833.141     
  37376000  -3851.4919    
  37377000  -3848.9021    
  37378000  -3856.2479    
  37379000  -3959.6514    
  37380000  -3916.1277    
  37381000  -3914.4156    
  37382000  -3866.2109    
  37383000  -3924.6747    
  37384000  -3946.7983    
  37385000  -3963.8711    
  37386000  -3869.6412    
  37387000  -3891.3014    
  37388000  -3904.5575    
  37389000  -3846.8908    
  37390000  -3819.7018    
  37391000  -3819.9282    
  37392000  -3870.9398    
  37393000  -3890.1227    
  37394000  -3832.9386    
  37395000  -3943.7746    
  37396000  -3915.3468    
  37397000  -3832.3306    
  37398000  -3853.5687    
  37399000  -3798.2519    
  37400000  -3836.7462    
  37401000  -3849.2302    
  37402000  -3813.3556    
  37403000  -3780.006     
  37404000  -3744.5494    
  37405000  -3805.8051    
  37406000  -3801.8542    
  37407000  -3849.9337    
  37408000  -3822.7011    
  37409000  -4022.4537    
  37410000  -3887.3431    
  37411000  -3904.3922    
  37412000  -3874.2348    
  37413000  -3980.9403    
  37414000  -3959.1955    
  37415000  -3878.522     
  37416000  -3920.9999    
  37417000  -3965.4509    
  37418000  -3923.4591    
  37419000  -3947.903     
  37420000  -3924.2232    
  37421000  -3813.3093    
  37422000  -3937.1359    
  37423000  -3815.7305    
  37424000  -3905.9788    
  37425000  -3898.1188    
  37426000  -3857.0322    
  37427000  -3851.8331    
  37428000  -3798.919     
  37429000  -3925.5985    
  37430000  -3753.8837    
  37431000  -3823.3163    
  37432000  -3903.7934    
  37433000  -3868.9649    
  37434000  -3865.5707    
  37435000  -3911.0325    
  37436000  -3905.4739    
  37437000  -3861.1718    
  37438000  -3905.3971    
  37439000  -3852.2832    
  37440000  -3768.1783    
  37441000  -3841.4255    
  37442000  -3848.9702    
  37443000  -3794.9875    
  37444000  -3752.2854    
  37445000  -3670.8183    
  37446000  -3670.2302    
  37447000  -3819.7879    
  37448000  -3769.5251    
  37449000  -3858.2986    
  37450000  -3812.0207    
  37451000  -3798.9958    
  37452000  -3777.278     
  37453000  -3844.7897    
  37454000  -3882.8718    
  37455000  -3886.6458    
  37456000  -3837.8997    
  37457000  -3964.3037    
  37458000  -3882.4495    
  37459000  -3943.396     
  37460000  -3876.526     
  37461000  -3900.0623    
  37462000  -3964.7748    
  37463000  -3938.9225    
  37464000  -3840.1274    
  37465000  -3957.4265    
  37466000  -3919.4549    
  37467000  -3918.8918    
  37468000  -3916.8934    
  37469000  -3875.6875    
  37470000  -3934.8456    
  37471000  -3926.8251    
  37472000  -3883.894     
  37473000  -3807.7006    
  37474000  -3832.3135    
  37475000  -3907.7893    
  37476000  -3760.5581    
  37477000  -3834.5059    
  37478000  -3825.2009    
  37479000  -3771.2149    
  37480000  -3659.4426    
  37481000  -3661.7461    
  37482000  -3736.3334    
  37483000  -3720.5686    
  37484000  -3667.5209    
  37485000  -3842.2118    
  37486000  -3637.7558    
  37487000  -3651.2852    
  37488000  -3690.9599    
  37489000  -3686.8554    
  37490000  -3684.217     
  37491000  -3758.1356    
  37492000  -3666.9668    
  37493000  -3639.523     
  37494000  -3643.5786    
  37495000  -3634.8262    
  37496000  -3657.1588    
  37497000  -3691.3866    
  37498000  -3749.2115    
  37499000  -3754.1768    
  37500000  -3676.1498    
  37501000  -3814.7763    
  37502000  -3836.1188    
  37503000  -3798.6225    
  37504000  -3811.7223    
  37505000  -3858.8056    
  37506000  -3887.1902    
  37507000  -4007.1065    
  37508000  -3959.5266    
  37509000  -3897.2915    
  37510000  -3975.9412    
  37511000  -3920.9432    
  37512000  -3863.4523    
  37513000  -3900.3271    
  37514000  -3981.7649    
  37515000  -3934.8446    
  37516000  -3914.4712    
  37517000  -3936.8727    
  37518000  -3962.5515    
  37519000  -4041.3185    
  37520000  -3993.9816    
  37521000  -4024.9356    
  37522000  -3920.7229    
  37523000  -4014.8301    
  37524000  -3897.4805    
  37525000  -4016.2102    
  37526000  -3952.6819    
  37527000  -3956.6501    
  37528000  -3975.4152    
  37529000  -3981.332     
  37530000  -3951.5838    
  37531000  -3966.297     
  37532000  -3974.1687    
  37533000  -3909.7291    
  37534000  -3966.3031    
  37535000  -4031.0284    
  37536000  -3976.5815    
  37537000  -3997.9607    
  37538000  -3949.4603    
  37539000  -3937.8943    
  37540000  -3887.069     
  37541000  -4047.0941    
  37542000  -4016.4665    
  37543000  -3945.4848    
  37544000  -3934.2687    
  37545000  -4027.2904    
  37546000  -3943.7782    
  37547000  -4004.7244    
  37548000  -4064.5111    
  37549000  -4061.7983    
  37550000  -4241.6709    
  37551000  -4048.5207    
  37552000  -4057.2806    
  37553000  -4043.7149    
  37554000  -4175.2294    
  37555000  -4169.113     
  37556000  -4182.5911    
  37557000  -4188.466     
  37558000  -4191.2606    
  37559000  -4172.6321    
  37560000  -4143.8154    
  37561000  -4218.0766    
  37562000  -4275.1947    
  37563000  -4217.7806    
  37564000  -4145.9345    
  37565000  -4087.9625    
  37566000  -4181.997     
  37567000  -4176.2607    
  37568000  -4110.8607    
  37569000  -4115.0571    
  37570000  -4076.4859    
  37571000  -4107.2567    
  37572000  -4091.0286    
  37573000  -4013.7818    
  37574000  -4009.9578    
  37575000  -4016.4711    
  37576000  -3894.0423    
  37577000  -4017.2301    
  37578000  -3911.7967    
  37579000  -3998.1062    
  37580000  -3955.6492    
  37581000  -4041.9104    
  37582000  -4069.4828    
  37583000  -4090.8308    
  37584000  -4014.5444    
  37585000  -4001.6158    
  37586000  -3988.1117    
  37587000  -4022.0375    
  37588000  -4069.1269    
  37589000  -4063.8685    
  37590000  -4065.3031    
  37591000  -4015.1912    
  37592000  -4031.6925    
  37593000  -3981.1188    
  37594000  -4027.4944    
  37595000  -4011.8845    
  37596000  -4036.8723    
  37597000  -4140.85      
  37598000  -4019.9679    
  37599000  -3859.8886    
  37600000  -4065.8148    
  37601000  -3917.8699    
  37602000  -3939.1643    
  37603000  -4015.0599    
  37604000  -3993.7707    
  37605000  -3929.4928    
  37606000  -3946.1002    
  37607000  -3906.5191    
  37608000  -3970.6267    
  37609000  -3965.1147    
  37610000  -3956.0401    
  37611000  -4085.7311    
  37612000  -4079.302     
  37613000  -4035.4365    
  37614000  -4071.2051    
  37615000  -3984.3915    
  37616000  -4049.8548    
  37617000  -3941.0135    
  37618000  -4057.2228    
  37619000  -3952.1143    
  37620000  -3938.16      
  37621000  -4085.2168    
  37622000  -4021.0913    
  37623000  -3909.579     
  37624000  -3984.3352    
  37625000  -4050.8425    
  37626000  -4005.443     
  37627000  -4119.9039    
  37628000  -4057.9625    
  37629000  -4029.4213    
  37630000  -4045.4662    
  37631000  -3945.4955    
  37632000  -3992.2199    
  37633000  -4137.4811    
  37634000  -4085.7221    
  37635000  -4028.9714    
  37636000  -3943.6677    
  37637000  -3943.9911    
  37638000  -3987.9041    
  37639000  -4000.5296    
  37640000  -4003.6342    
  37641000  -3951.5196    
  37642000  -3996.5728    
  37643000  -3885.5871    
  37644000  -4096.2948    
  37645000  -3973.7266    
  37646000  -3967.7038    
  37647000  -4019.5149    
  37648000  -4064.5318    
  37649000  -4061.06      
  37650000  -4006.4286    
  37651000  -4069.3914    
  37652000  -4123.6332    
  37653000  -4028.7065    
  37654000  -4065.3274    
  37655000  -4062.7412    
  37656000  -4101.8439    
  37657000  -4002.3623    
  37658000  -3977.8418    
  37659000  -4059.1419    
  37660000  -3907.434     
  37661000  -3852.6028    
  37662000  -3912.1239    
  37663000  -3992.6457    
  37664000  -3863.092     
  37665000  -3863.2835    
  37666000  -3914.4926    
  37667000  -3895.1627    
  37668000  -3985.7466    
  37669000  -4035.1207    
  37670000  -4010.2466    
  37671000  -3971.6663    
  37672000  -3940.3503    
  37673000  -4053.0094    
  37674000  -4060.7029    
  37675000  -3987.6863    
  37676000  -4040.9458    
  37677000  -3984.7836    
  37678000  -3968.9275    
  37679000  -3977.538     
  37680000  -3981.3376    
  37681000  -3904.6241    
  37682000  -3979.3155    
  37683000  -3963.8005    
  37684000  -4076.3593    
  37685000  -4036.2971    
  37686000  -4037.8481    
  37687000  -4148.8949    
  37688000  -4004.3455    
  37689000  -4130.5219    
  37690000  -4138.4915    
  37691000  -4120.9629    
  37692000  -4078.924     
  37693000  -4057.7646    
  37694000  -4111.9356    
  37695000  -4046.1864    
  37696000  -4068.9709    
  37697000  -4029.9308    
  37698000  -4099.1667    
  37699000  -3984.687     
  37700000  -3962.2359    
  37701000  -3949.3811    
  37702000  -3876.1538    
  37703000  -3998.1319    
  37704000  -3992.3471    
  37705000  -3964.4931    
  37706000  -4013.6147    
  37707000  -4044.0606    
  37708000  -3959.2706    
  37709000  -3915.9812    
  37710000  -4017.1279    
  37711000  -4005.5388    
  37712000  -4003.9826    
  37713000  -3965.8163    
  37714000  -3876.5034    
  37715000  -3864.5616    
  37716000  -3983.7894    
  37717000  -3914.9108    
  37718000  -3972.7959    
  37719000  -3849.118     
  37720000  -3862.8039    
  37721000  -3894.6725    
  37722000  -3889.9239    
  37723000  -3889.678     
  37724000  -3876.5262    
  37725000  -3875.9653    
  37726000  -3881.6756    
  37727000  -3829.3184    
  37728000  -3827.5571    
  37729000  -3879.026     
  37730000  -3810.8012    
  37731000  -3959.4814    
  37732000  -3974.9353    
  37733000  -3936.2733    
  37734000  -3895.6223    
  37735000  -3800.9121    
  37736000  -3872.8388    
  37737000  -3945.3011    
  37738000  -3934.9425    
  37739000  -3869.2686    
  37740000  -3867.6985    
  37741000  -3950.7888    
  37742000  -3818.9749    
  37743000  -3759.3648    
  37744000  -3922.8514    
  37745000  -3895.6916    
  37746000  -3820.4397    
  37747000  -3851.0042    
  37748000  -3896.8524    
  37749000  -4019.4761    
  37750000  -4110.5553    
  37751000  -3974.4352    
  37752000  -4057.8238    
  37753000  -4078.1326    
  37754000  -4028.425     
  37755000  -3972.7386    
  37756000  -3924.7107    
  37757000  -4102.4387    
  37758000  -4066.2941    
  37759000  -4016.1953    
  37760000  -3977.2416    
  37761000  -4036.9091    
  37762000  -4042.3535    
  37763000  -4056.8586    
  37764000  -4082.9776    
  37765000  -3957.8998    
  37766000  -4007.9529    
  37767000  -4075.7734    
  37768000  -3991.3842    
  37769000  -3959.3418    
  37770000  -3921.2086    
  37771000  -3915.5338    
  37772000  -3939.4011    
  37773000  -3865.5655    
  37774000  -3922.6006    
  37775000  -3870.254     
  37776000  -3950.1543    
  37777000  -3907.8917    
  37778000  -3925.1925    
  37779000  -3973.3152    
  37780000  -3975.778     
  37781000  -3956.2195    
  37782000  -3939.579     
  37783000  -3881.6243    
  37784000  -4020.6745    
  37785000  -3891.2462    
  37786000  -3951.6806    
  37787000  -3900.7087    
  37788000  -3884.8819    
  37789000  -3899.0313    
  37790000  -4001.1346    
  37791000  -4033.1161    
  37792000  -4048.257     
  37793000  -4073.1102    
  37794000  -3955.1158    
  37795000  -4011.7396    
  37796000  -3958.3944    
  37797000  -3951.0601    
  37798000  -3924.7137    
  37799000  -3900.4544    
  37800000  -3906.9006    
  37801000  -4028.5503    
  37802000  -4050.9336    
  37803000  -3963.7847    
  37804000  -4068.5378    
  37805000  -3996.698     
  37806000  -4171.9613    
  37807000  -4076.3932    
  37808000  -4057.134     
  37809000  -4079.6046    
  37810000  -4066.0631    
  37811000  -4100.6359    
  37812000  -4023.0354    
  37813000  -4032.3585    
  37814000  -3876.9555    
  37815000  -4043.7005    
  37816000  -3947.0793    
  37817000  -4055.4989    
  37818000  -3869.3848    
  37819000  -3929.7643    
  37820000  -3951.5273    
  37821000  -3997.4054    
  37822000  -4004.8455    
  37823000  -3920.2463    
  37824000  -3992.412     
  37825000  -3924.4009    
  37826000  -4040.577     
  37827000  -4016.5402    
  37828000  -3956.6617    
  37829000  -3967.6705    
  37830000  -3974.2494    
  37831000  -3997.6352    
  37832000  -3933.5267    
  37833000  -3910.7289    
  37834000  -3903.7218    
  37835000  -3847.2241    
  37836000  -3872.685     
  37837000  -3897.0629    
  37838000  -3894.5236    
  37839000  -3917.8479    
  37840000  -3898.8971    
  37841000  -3964.7144    
  37842000  -3922.7824    
  37843000  -3998.1073    
  37844000  -3943.0778    
  37845000  -3944.638     
  37846000  -3916.3561    
  37847000  -4068.198     
  37848000  -4123.7263    
  37849000  -4088.5665    
  37850000  -4084.0059    
  37851000  -4031.4921    
  37852000  -4113.4206    
  37853000  -4090.2889    
  37854000  -4141.8779    
  37855000  -4011.1663    
  37856000  -4132.0169    
  37857000  -4058.5702    
  37858000  -4071.1156    
  37859000  -4111.0876    
  37860000  -4023.03      
  37861000  -4042.1572    
  37862000  -3945.9678    
  37863000  -4050.4012    
  37864000  -4016.1567    
  37865000  -3935.7539    
  37866000  -4002.8762    
  37867000  -3991.4811    
  37868000  -3939.0613    
  37869000  -3924.4372    
  37870000  -3961.6055    
  37871000  -3966.3059    
  37872000  -3986.17      
  37873000  -3992.1947    
  37874000  -3930.9829    
  37875000  -3950.3138    
  37876000  -3932.7031    
  37877000  -3911.4904    
  37878000  -3982.4126    
  37879000  -3953.3171    
  37880000  -3934.4844    
  37881000  -3982.4329    
  37882000  -3877.1862    
  37883000  -4026.2942    
  37884000  -4009.4121    
  37885000  -3892.1444    
  37886000  -3911.4884    
  37887000  -3882.7047    
  37888000  -3895.6404    
  37889000  -3953.3126    
  37890000  -3932.7809    
  37891000  -3901.6177    
  37892000  -3915.786     
  37893000  -3922.5624    
  37894000  -3965.1287    
  37895000  -3996.1514    
  37896000  -3969.6656    
  37897000  -3978.874     
  37898000  -4045.7366    
  37899000  -4032.5411    
  37900000  -4014.1725    
  37901000  -3962.9545    
  37902000  -3979.6142    
  37903000  -4078.678     
  37904000  -4023.1632    
  37905000  -3996.7584    
  37906000  -3953.3656    
  37907000  -3951.9469    
  37908000  -3930.7189    
  37909000  -3919.7522    
  37910000  -3877.5339    
  37911000  -3819.1721    
  37912000  -3838.9596    
  37913000  -3810.6966    
  37914000  -3853.2293    
  37915000  -3854.864     
  37916000  -3787.232     
  37917000  -3822.0059    
  37918000  -3837.1816    
  37919000  -3846.4774    
  37920000  -3828.451     
  37921000  -3801.846     
  37922000  -3738.3614    
  37923000  -3768.6311    
  37924000  -3749.7995    
  37925000  -3820.9237    
  37926000  -3882.7995    
  37927000  -3857.2472    
  37928000  -3943.1411    
  37929000  -3741.7343    
  37930000  -3818.4615    
  37931000  -3837.9433    
  37932000  -3906.1518    
  37933000  -3859.085     
  37934000  -3885.5675    
  37935000  -3881.3853    
  37936000  -3774.3125    
  37937000  -3958.3398    
  37938000  -4018.0078    
  37939000  -3981.2881    
  37940000  -4050.6058    
  37941000  -3942.8356    
  37942000  -3880.4097    
  37943000  -3911.4672    
  37944000  -3900.1322    
  37945000  -3771.6257    
  37946000  -3850.4424    
  37947000  -3862.2443    
  37948000  -3878.8982    
  37949000  -3863.8386    
  37950000  -3881.1199    
  37951000  -3921.8784    
  37952000  -3927.4016    
  37953000  -3901.8479    
  37954000  -3781.8578    
  37955000  -3847.216     
  37956000  -3802.6902    
  37957000  -3880.9851    
  37958000  -3820.1496    
  37959000  -3712.1266    
  37960000  -3823.8128    
  37961000  -3863.7428    
  37962000  -3881.6342    
  37963000  -3825.1167    
  37964000  -3928.9486    
  37965000  -3843.4566    
  37966000  -3757.8223    
  37967000  -3682.2539    
  37968000  -3817.284     
  37969000  -3844.2891    
  37970000  -3799.3299    
  37971000  -3882.5483    
  37972000  -3813.4522    
  37973000  -3942.4622    
  37974000  -3928.1595    
  37975000  -3860.7787    
  37976000  -3998.604     
  37977000  -3897.0961    
  37978000  -3913.7182    
  37979000  -3860.1522    
  37980000  -3801.4199    
  37981000  -3944.8167    
  37982000  -3922.7915    
  37983000  -3966.7376    
  37984000  -3940.528     
  37985000  -3943.8928    
  37986000  -3969.4296    
  37987000  -3896.5539    
  37988000  -3975.1726    
  37989000  -3961.0908    
  37990000  -3919.2815    
  37991000  -3909.0402    
  37992000  -3900.4078    
  37993000  -3889.5473    
  37994000  -3861.2138    
  37995000  -3870.232     
  37996000  -3797.9482    
  37997000  -3922.7083    
  37998000  -3918.6944    
  37999000  -3914.8438    
  38000000  -3844.9146    
  38001000  -3928.2236    
  38002000  -3894.6133    
  38003000  -3863.5401    
  38004000  -3883.8772    
  38005000  -3909.5544    
  38006000  -3805.0024    
  38007000  -3832.9092    
  38008000  -3886.1058    
  38009000  -3849.0656    
  38010000  -3862.6018    
  38011000  -3889.5057    
  38012000  -3807.5693    
  38013000  -3832.6764    
  38014000  -3876.2541    
  38015000  -3870.5467    
  38016000  -3787.4332    
  38017000  -3752.8704    
  38018000  -3698.4523    
  38019000  -3854.42      
  38020000  -3803.4989    
  38021000  -3861.5206    
  38022000  -3790.6924    
  38023000  -3831.6989    
  38024000  -3856.3491    
  38025000  -3981.807     
  38026000  -3857.3827    
  38027000  -3846.3548    
  38028000  -3848.9158    
  38029000  -3934.3097    
  38030000  -3901.7124    
  38031000  -3862.777     
  38032000  -3915.7886    
  38033000  -3962.5731    
  38034000  -3979.6665    
  38035000  -3888.968     
  38036000  -4013.2881    
  38037000  -3979.1338    
  38038000  -3951.3118    
  38039000  -4027.9208    
  38040000  -3934.5703    
  38041000  -4012.0286    
  38042000  -3948.2941    
  38043000  -3958.7951    
  38044000  -3982.7529    
  38045000  -3942.7438    
  38046000  -4052.6219    
  38047000  -4168.242     
  38048000  -4123.7604    
  38049000  -4119.8282    
  38050000  -4059.7216    
  38051000  -3945.8949    
  38052000  -4004.043     
  38053000  -3928.0833    
  38054000  -4011.394     
  38055000  -4010.4576    
  38056000  -4029.4829    
  38057000  -4047.071     
  38058000  -4008.8837    
  38059000  -4002.5551    
  38060000  -3923.9058    
  38061000  -4023.2486    
  38062000  -4029.6679    
  38063000  -4018.2426    
  38064000  -4024.6092    
  38065000  -3971.6901    
  38066000  -3993.5751    
  38067000  -3911.6957    
  38068000  -3928.0515    
  38069000  -3973.1812    
  38070000  -3916.3218    
  38071000  -3867.5614    
  38072000  -3906.3244    
  38073000  -3935.8881    
  38074000  -3966.1801    
  38075000  -3978.7703    
  38076000  -3960.0153    
  38077000  -3966.0374    
  38078000  -4015.4288    
  38079000  -3953.2466    
  38080000  -3935.4674    
  38081000  -3950.6324    
  38082000  -3986.2808    
  38083000  -3950.5318    
  38084000  -3867.6351    
  38085000  -3936.4906    
  38086000  -3905.6975    
  38087000  -3892.7209    
  38088000  -3962.1772    
  38089000  -3964.257     
  38090000  -3927.4533    
  38091000  -3991.1245    
  38092000  -3972.0084    
  38093000  -4041.5292    
  38094000  -4066.328     
  38095000  -3989.6158    
  38096000  -4006.7044    
  38097000  -4014.7238    
  38098000  -3997.0479    
  38099000  -4028.6478    
  38100000  -4055.4388    
  38101000  -3932.9231    
  38102000  -3965.8629    
  38103000  -3898.0523    
  38104000  -3784.4502    
  38105000  -3965.5904    
  38106000  -3942.6467    
  38107000  -3926.7293    
  38108000  -3949.5621    
  38109000  -3997.2343    
  38110000  -3972.2043    
  38111000  -3963.7202    
  38112000  -3895.8454    
  38113000  -3942.5365    
  38114000  -3884.0462    
  38115000  -3882.772     
  38116000  -3869.7646    
  38117000  -3945.4094    
  38118000  -3848.6973    
  38119000  -3942.1082    
  38120000  -3880.1176    
  38121000  -3781.9913    
  38122000  -3858.2966    
  38123000  -3870.4939    
  38124000  -3825.9871    
  38125000  -3845.2724    
  38126000  -3871.962     
  38127000  -3854.884     
  38128000  -3812.7312    
  38129000  -3836.3568    
  38130000  -3882.8139    
  38131000  -3808.0388    
  38132000  -3789.7215    
  38133000  -3911.6045    
  38134000  -3950.4123    
  38135000  -3840.1481    
  38136000  -3856.5095    
  38137000  -3971.7125    
  38138000  -3914.1816    
  38139000  -3873.4924    
  38140000  -3875.879     
  38141000  -3868.6741    
  38142000  -3998.8746    
  38143000  -3927.1155    
  38144000  -3803.9943    
  38145000  -3815.8667    
  38146000  -3921.0589    
  38147000  -3994.888     
  38148000  -3854.8286    
  38149000  -3765.6088    
  38150000  -3855.5369    
  38151000  -3901.5336    
  38152000  -3857.6817    
  38153000  -3869.6757    
  38154000  -3851.1756    
  38155000  -3902.014     
  38156000  -3953.6643    
  38157000  -3913.1683    
  38158000  -3953.3702    
  38159000  -3899.8744    
  38160000  -3941.5254    
  38161000  -3918.6332    
  38162000  -3908.4437    
  38163000  -4009.6529    
  38164000  -3971.2411    
  38165000  -3943.5539    
  38166000  -3949.2209    
  38167000  -3821.74      
  38168000  -3968.4519    
  38169000  -3963.9903    
  38170000  -3955.3641    
  38171000  -3865.6321    
  38172000  -3881.1386    
  38173000  -3876.5749    
  38174000  -3876.792     
  38175000  -3930.134     
  38176000  -3914.9759    
  38177000  -3876.5203    
  38178000  -3864.1925    
  38179000  -3921.7048    
  38180000  -3902.6263    
  38181000  -3872.6738    
  38182000  -3913.3474    
  38183000  -3987.918     
  38184000  -3878.978     
  38185000  -3863.3729    
  38186000  -3956.8388    
  38187000  -3898.9482    
  38188000  -3916.2923    
  38189000  -3874.6776    
  38190000  -3905.428     
  38191000  -3854.9938    
  38192000  -3914.1162    
  38193000  -3866.62      
  38194000  -3945.4321    
  38195000  -3889.8124    
  38196000  -4009.2304    
  38197000  -3900.2755    
  38198000  -4014.8845    
  38199000  -3989.1039    
  38200000  -3987.7738    
  38201000  -4084.3178    
  38202000  -3928.323     
  38203000  -3927.4151    
  38204000  -4030.3392    
  38205000  -4022.8462    
  38206000  -4054.0242    
  38207000  -3981.9674    
  38208000  -4025.1817    
  38209000  -3931.0718    
  38210000  -3998.3888    
  38211000  -3966.1087    
  38212000  -3955.6796    
  38213000  -3837.3391    
  38214000  -4016.7387    
  38215000  -3947.1164    
  38216000  -3923.6951    
  38217000  -3970.8964    
  38218000  -4059.4144    
  38219000  -4012.7159    
  38220000  -3966.9506    
  38221000  -4027.5956    
  38222000  -3966.0618    
  38223000  -3936.4624    
  38224000  -3919.0059    
  38225000  -3937.5074    
  38226000  -3938.5496    
  38227000  -3976.0916    
  38228000  -3942.6697    
  38229000  -4035.992     
  38230000  -4031.3701    
  38231000  -3991.8415    
  38232000  -4040.8335    
  38233000  -3983.481     
  38234000  -4056.8924    
  38235000  -3997.707     
  38236000  -3880.7254    
  38237000  -3987.2693    
  38238000  -3959.6891    
  38239000  -3966.5635    
  38240000  -3969.2014    
  38241000  -4026.7694    
  38242000  -4068.3535    
  38243000  -3919.9474    
  38244000  -3972.4677    
  38245000  -3975.2704    
  38246000  -3973.7571    
  38247000  -3876.5165    
  38248000  -3880.0761    
  38249000  -3923.2712    
  38250000  -3850.616     
  38251000  -3835.5218    
  38252000  -3928.6851    
  38253000  -3974.4897    
  38254000  -3876.8005    
  38255000  -3873.2115    
  38256000  -3920.7963    
  38257000  -4038.3054    
  38258000  -3996.2481    
  38259000  -3977.3186    
  38260000  -3910.7912    
  38261000  -3979.9012    
  38262000  -4067.1135    
  38263000  -4038.3091    
  38264000  -4009.2374    
  38265000  -4049.4941    
  38266000  -4037.5087    
  38267000  -3960.019     
  38268000  -4004.093     
  38269000  -3943.9164    
  38270000  -3951.5612    
  38271000  -3892.9735    
  38272000  -3878.9248    
  38273000  -3874.9884    
  38274000  -3886.2779    
  38275000  -3868.5564    
  38276000  -4012.5023    
  38277000  -4040.8461    
  38278000  -3985.481     
  38279000  -3934.9578    
  38280000  -3947.8074    
  38281000  -4016.8687    
  38282000  -4015.6674    
  38283000  -3948.109     
  38284000  -3944.2845    
  38285000  -3845.4696    
  38286000  -3942.4434    
  38287000  -4006.2439    
  38288000  -3866.308     
  38289000  -4052.3855    
  38290000  -4052.0139    
  38291000  -4105.0577    
  38292000  -4153.2612    
  38293000  -4041.5735    
  38294000  -4051.9297    
  38295000  -4052.2787    
  38296000  -4104.6808    
  38297000  -4157.3011    
  38298000  -4070.4789    
  38299000  -4038.9346    
  38300000  -4154.5699    
  38301000  -4013.5057    
  38302000  -4111.3804    
  38303000  -4065.8758    
  38304000  -4099.2857    
  38305000  -4072.5743    
  38306000  -4054.4332    
  38307000  -4109.182     
  38308000  -3992.229     
  38309000  -4085.3673    
  38310000  -4182.8314    
  38311000  -4189.4787    
  38312000  -4036.2589    
  38313000  -4124.2048    
  38314000  -4030.9058    
  38315000  -4013.0027    
  38316000  -4115.9354    
  38317000  -4024.8323    
  38318000  -4064.3659    
  38319000  -4097.4925    
  38320000  -4069.6109    
  38321000  -4124.735     
  38322000  -4049.5171    
  38323000  -4091.8979    
  38324000  -3956.7662    
  38325000  -4038.9867    
  38326000  -4084.9598    
  38327000  -4208.5133    
  38328000  -4086.4344    
  38329000  -4142.9294    
  38330000  -4080.1264    
  38331000  -4153.4201    
  38332000  -4069.3668    
  38333000  -4042.8671    
  38334000  -4113.1897    
  38335000  -3998.4229    
  38336000  -4029.3191    
  38337000  -4049.7694    
  38338000  -4027.8674    
  38339000  -3986.4604    
  38340000  -3974.2266    
  38341000  -4004.7686    
  38342000  -3956.9571    
  38343000  -3940.8559    
  38344000  -3901.1256    
  38345000  -3897.0102    
  38346000  -4000.668     
  38347000  -3914.2076    
  38348000  -3909.5816    
  38349000  -3923.2091    
  38350000  -3902.4244    
  38351000  -3941.2877    
  38352000  -4030.8887    
  38353000  -4049.9189    
  38354000  -4058.8172    
  38355000  -4030.8723    
  38356000  -3961.0512    
  38357000  -3927.9225    
  38358000  -3891.7676    
  38359000  -4010.9296    
  38360000  -3972.2941    
  38361000  -3916.1038    
  38362000  -4011.4659    
  38363000  -4078.1011    
  38364000  -4017.0868    
  38365000  -3926.1327    
  38366000  -3854.9403    
  38367000  -4016.5213    
  38368000  -3939.7978    
  38369000  -4010.5977    
  38370000  -4013.5635    
  38371000  -3960.1169    
  38372000  -3944.5516    
  38373000  -3909.4276    
  38374000  -3907.0044    
  38375000  -4059.3577    
  38376000  -4006.6642    
  38377000  -3961.8915    
  38378000  -3929.914     
  38379000  -3858.6957    
  38380000  -4008.1951    
  38381000  -3928.9705    
  38382000  -3921.1531    
  38383000  -4067.1093    
  38384000  -4003.4615    
  38385000  -3972.9629    
  38386000  -3840.8803    
  38387000  -4048.6861    
  38388000  -3872.4047    
  38389000  -3929.1151    
  38390000  -4050.0567    
  38391000  -4017.1285    
  38392000  -4072.0343    
  38393000  -4054.6727    
  38394000  -4064.4472    
  38395000  -3967.1417    
  38396000  -4097.9542    
  38397000  -3990.234     
  38398000  -4132.0484    
  38399000  -4039.8733    
  38400000  -4136.1089    
  38401000  -4129.6465    
  38402000  -4033.2775    
  38403000  -4031.8847    
  38404000  -4106.1803    
  38405000  -3990.1228    
  38406000  -4066.516     
  38407000  -3972.8281    
  38408000  -4043.7516    
  38409000  -4048.3162    
  38410000  -4030.4088    
  38411000  -4043.0562    
  38412000  -4006.7758    
  38413000  -4046.4352    
  38414000  -4045.2228    
  38415000  -4135.3994    
  38416000  -4117.4301    
  38417000  -4096.8905    
  38418000  -4155.3657    
  38419000  -4091.4498    
  38420000  -4125.8611    
  38421000  -4094.0871    
  38422000  -4036.7201    
  38423000  -3955.3383    
  38424000  -4062.5881    
  38425000  -3999.4374    
  38426000  -4020.0689    
  38427000  -4021.8164    
  38428000  -3994.8537    
  38429000  -3978.8681    
  38430000  -3962.9302    
  38431000  -3964.8529    
  38432000  -4020.5662    
  38433000  -3943.5504    
  38434000  -3952.0422    
  38435000  -4016.4021    
  38436000  -4003.591     
  38437000  -4017.3773    
  38438000  -3990.6268    
  38439000  -4034.8758    
  38440000  -4023.7315    
  38441000  -4071.0375    
  38442000  -4048.7327    
  38443000  -3993.5532    
  38444000  -4009.6421    
  38445000  -4024.3473    
  38446000  -3946.3707    
  38447000  -3972.8313    
  38448000  -4009.1652    
  38449000  -4064.0357    
  38450000  -4040.4148    
  38451000  -3981.7001    
  38452000  -4060.1559    
  38453000  -3967.5606    
  38454000  -3942.3644    
  38455000  -3992.264     
  38456000  -3918.9376    
  38457000  -3869.4157    
  38458000  -4027.6389    
  38459000  -3844.2611    
  38460000  -3882.7997    
  38461000  -3951.4941    
  38462000  -3948.1794    
  38463000  -3906.8584    
  38464000  -3985.8002    
  38465000  -3960.0692    
  38466000  -3989.3063    
  38467000  -4103.3074    
  38468000  -4015.5589    
  38469000  -4070.678     
  38470000  -4062.1091    
  38471000  -4111.5218    
  38472000  -4089.4156    
  38473000  -4128.5409    
  38474000  -4044.93      
  38475000  -4022.5366    
  38476000  -3996.3816    
  38477000  -4005.5016    
  38478000  -4088.4544    
  38479000  -4049.0095    
  38480000  -3957.8138    
  38481000  -3975.2908    
  38482000  -4084.2871    
  38483000  -3929.1811    
  38484000  -4034.5481    
  38485000  -3985.933     
  38486000  -4107.9434    
  38487000  -3936.6903    
  38488000  -4018.4895    
  38489000  -4102.3561    
  38490000  -4045.743     
  38491000  -3904.2838    
  38492000  -3948.4062    
  38493000  -3952.4135    
  38494000  -3985.9121    
  38495000  -3867.2508    
  38496000  -3951.3722    
  38497000  -4064.1742    
  38498000  -3970.8929    
  38499000  -4035.364     
  38500000  -4099.5987    
  38501000  -4152.277     
  38502000  -4107.2016    
  38503000  -4221.0111    
  38504000  -4046.0394    
  38505000  -4012.286     
  38506000  -4098.3282    
  38507000  -4132.5668    
  38508000  -4028.405     
  38509000  -4098.5509    
  38510000  -4034.1215    
  38511000  -4117.2423    
  38512000  -4149.4931    
  38513000  -4155.0252    
  38514000  -4065.8533    
  38515000  -4067.8257    
  38516000  -4008.7725    
  38517000  -4046.7327    
  38518000  -4005.1947    
  38519000  -3985.231     
  38520000  -3952.7815    
  38521000  -3975.9767    
  38522000  -3897.5293    
  38523000  -4051.6298    
  38524000  -3954.1349    
  38525000  -4059.0569    
  38526000  -3971.6338    
  38527000  -4081.1196    
  38528000  -4060.3453    
  38529000  -4020.1835    
  38530000  -3982.7004    
  38531000  -4016.9351    
  38532000  -4069.0871    
  38533000  -4035.1227    
  38534000  -4069.0547    
  38535000  -4038.7925    
  38536000  -4087.8556    
  38537000  -4089.314     
  38538000  -4073.4891    
  38539000  -4083.0503    
  38540000  -4093.8958    
  38541000  -4105.1366    
  38542000  -4159.8578    
  38543000  -4198.0315    
  38544000  -4173.057     
  38545000  -4116.0467    
  38546000  -4068.3849    
  38547000  -4019.51      
  38548000  -3969.7772    
  38549000  -4177.1731    
  38550000  -4052.0278    
  38551000  -4148.274     
  38552000  -4095.7864    
  38553000  -4039.8287    
  38554000  -4081.8425    
  38555000  -4080.4888    
  38556000  -3949.6153    
  38557000  -3884.6905    
  38558000  -4024.2555    
  38559000  -4064.6121    
  38560000  -4059.7257    
  38561000  -4117.8451    
  38562000  -3938.0272    
  38563000  -4012.1667    
  38564000  -3993.2416    
  38565000  -3963.5405    
  38566000  -3967.8108    
  38567000  -3843.2233    
  38568000  -3844.5811    
  38569000  -3835.044     
  38570000  -3789.2757    
  38571000  -3828.6726    
  38572000  -3827.8133    
  38573000  -3816.6246    
  38574000  -3826.5095    
  38575000  -3871.9775    
  38576000  -3843.5384    
  38577000  -3871.3117    
  38578000  -3900.4306    
  38579000  -3928.0707    
  38580000  -3820.4341    
  38581000  -3948.8324    
  38582000  -3833.6749    
  38583000  -3847.8284    
  38584000  -3949.9655    
  38585000  -3967.9857    
  38586000  -3941.6051    
  38587000  -3816.5009    
  38588000  -3935.5239    
  38589000  -3880.6627    
  38590000  -3902.0604    
  38591000  -4021.64      
  38592000  -4014.1022    
  38593000  -4092.7628    
  38594000  -3950.3406    
  38595000  -3912.8081    
  38596000  -3935.9807    
  38597000  -3854.381     
  38598000  -3946.3999    
  38599000  -3921.095     
  38600000  -3965.3865    
  38601000  -3964.5648    
  38602000  -4020.3284    
  38603000  -3966.8423    
  38604000  -4000.5499    
  38605000  -3948.2509    
  38606000  -3936.3435    
  38607000  -3999.2899    
  38608000  -4007.499     
  38609000  -3919.6658    
  38610000  -3942.1488    
  38611000  -4012.5058    
  38612000  -3905.281     
  38613000  -4045.229     
  38614000  -3938.1765    
  38615000  -3979.9051    
  38616000  -3966.3494    
  38617000  -3943.3023    
  38618000  -3838.9601    
  38619000  -4025.854     
  38620000  -3920.3042    
  38621000  -4051.432     
  38622000  -3980.6317    
  38623000  -4006.3176    
  38624000  -4022.7061    
  38625000  -3970.8935    
  38626000  -3903.7947    
  38627000  -3971.7166    
  38628000  -3930.9653    
  38629000  -3958.1597    
  38630000  -4117.3347    
  38631000  -4077.4744    
  38632000  -4075.0114    
  38633000  -4104.795     
  38634000  -4149.8389    
  38635000  -4117.324     
  38636000  -3957.509     
  38637000  -4201.6722    
  38638000  -4121.8989    
  38639000  -4081.6717    
  38640000  -4039.9314    
  38641000  -4049.5445    
  38642000  -4099.8077    
  38643000  -3988.4575    
  38644000  -4023.4733    
  38645000  -4000.0512    
  38646000  -3941.792     
  38647000  -3951.1601    
  38648000  -4012.8599    
  38649000  -4066.6727    
  38650000  -4146.364     
  38651000  -4042.8993    
  38652000  -3934.9644    
  38653000  -3993.9335    
  38654000  -4016.0799    
  38655000  -4030.7536    
  38656000  -3976.2804    
  38657000  -3928.1071    
  38658000  -4000.9679    
  38659000  -4044.2598    
  38660000  -3967.1954    
  38661000  -3869.0129    
  38662000  -3957.8764    
  38663000  -3938.4626    
  38664000  -4060.3893    
  38665000  -3982.8486    
  38666000  -4018.6063    
  38667000  -3942.4194    
  38668000  -3943.8131    
  38669000  -3863.6757    
  38670000  -3937.3076    
  38671000  -3856.7102    
  38672000  -3932.1817    
  38673000  -3896.678     
  38674000  -4015.9158    
  38675000  -3840.8135    
  38676000  -3904.6934    
  38677000  -3931.4126    
  38678000  -3938.6971    
  38679000  -4002.3329    
  38680000  -3964.9804    
  38681000  -3988.2738    
  38682000  -3995.6733    
  38683000  -3948.531     
  38684000  -3953.7822    
  38685000  -3995.5101    
  38686000  -4061.2347    
  38687000  -3983.1808    
  38688000  -3975.5141    
  38689000  -4062.2652    
  38690000  -4061.2348    
  38691000  -4004.5049    
  38692000  -4018.0958    
  38693000  -3995.7267    
  38694000  -3953.9533    
  38695000  -4033.3559    
  38696000  -4067.0331    
  38697000  -4013.2275    
  38698000  -4039.8592    
  38699000  -4001.0762    
  38700000  -3985.3504    
  38701000  -3990.462     
  38702000  -3952.7761    
  38703000  -3998.7482    
  38704000  -3973.5691    
  38705000  -4013.3179    
  38706000  -3926.2334    
  38707000  -4004.0882    
  38708000  -3991.7781    
  38709000  -3989.0222    
  38710000  -4053.1635    
  38711000  -3983.1939    
  38712000  -4060.1976    
  38713000  -4034.8744    
  38714000  -4006.118     
  38715000  -4014.1769    
  38716000  -3971.8403    
  38717000  -4000.8379    
  38718000  -4041.7352    
  38719000  -3992.4122    
  38720000  -3970.436     
  38721000  -4006.9246    
  38722000  -4025.5197    
  38723000  -3968.5286    
  38724000  -3990.2257    
  38725000  -4065.321     
  38726000  -3908.3783    
  38727000  -4043.4894    
  38728000  -3940.6521    
  38729000  -3924.0831    
  38730000  -3853.7613    
  38731000  -3959.2166    
  38732000  -3974.1876    
  38733000  -3888.9578    
  38734000  -3957.1867    
  38735000  -4066.586     
  38736000  -4071.0169    
  38737000  -4025.1872    
  38738000  -4076.0121    
  38739000  -3964.6654    
  38740000  -3924.4727    
  38741000  -3994.6719    
  38742000  -3974.5028    
  38743000  -4015.2557    
  38744000  -3854.8257    
  38745000  -3891.5177    
  38746000  -3883.5408    
  38747000  -3887.4782    
  38748000  -3973.035     
  38749000  -3911.7693    
  38750000  -3925.245     
  38751000  -3935.0545    
  38752000  -3823.7377    
  38753000  -3861.4363    
  38754000  -3807.5876    
  38755000  -3723.99      
  38756000  -3795.3178    
  38757000  -3834.3715    
  38758000  -3764.5074    
  38759000  -3852.4139    
  38760000  -3679.8416    
  38761000  -3884.0755    
  38762000  -3857.1996    
  38763000  -3810.0295    
  38764000  -3726.2467    
  38765000  -3804.3189    
  38766000  -3843.5685    
  38767000  -3905.9192    
  38768000  -3923.5457    
  38769000  -3882.5963    
  38770000  -3912.0623    
  38771000  -3950.1811    
  38772000  -3991.0191    
  38773000  -3976.8391    
  38774000  -3938.1661    
  38775000  -3974.8272    
  38776000  -3967.7748    
  38777000  -4002.3405    
  38778000  -3987.2469    
  38779000  -3999.4807    
  38780000  -3932.4713    
  38781000  -3937.7855    
  38782000  -3997.2479    
  38783000  -4035.7242    
  38784000  -4114.6545    
  38785000  -4109.4784    
  38786000  -4150.9581    
  38787000  -4049.2443    
  38788000  -4135.4791    
  38789000  -4062.3591    
  38790000  -4079.1684    
  38791000  -4102.0805    
  38792000  -4052.0059    
  38793000  -3967.2825    
  38794000  -4088.3659    
  38795000  -4018.3768    
  38796000  -4022.3195    
  38797000  -4008.3949    
  38798000  -4129.935     
  38799000  -4086.8065    
  38800000  -3944.7483    
  38801000  -3991.082     
  38802000  -4026.0478    
  38803000  -4064.5248    
  38804000  -4017.5272    
  38805000  -3971.792     
  38806000  -4031.3962    
  38807000  -3919.0511    
  38808000  -3904.0589    
  38809000  -3981.225     
  38810000  -3900.6756    
  38811000  -3964.5645    
  38812000  -4002.9186    
  38813000  -3919.4344    
  38814000  -3896.5182    
  38815000  -3846.4998    
  38816000  -3839.8587    
  38817000  -3919.9273    
  38818000  -3945.7944    
  38819000  -3892.5026    
  38820000  -3902.2292    
  38821000  -3843.0975    
  38822000  -3870.8471    
  38823000  -3865.5132    
  38824000  -3844.0201    
  38825000  -3826.2278    
  38826000  -3855.3926    
  38827000  -3858.7442    
  38828000  -3923.3027    
  38829000  -3862.0966    
  38830000  -3926.0359    
  38831000  -3861.3683    
  38832000  -3831.1391    
  38833000  -3877.7506    
  38834000  -3834.3031    
  38835000  -3889.0434    
  38836000  -3775.7359    
  38837000  -3846.7916    
  38838000  -3883.4053    
  38839000  -3870.0348    
  38840000  -3803.1772    
  38841000  -3877.5462    
  38842000  -3866.5086    
  38843000  -3756.6876    
  38844000  -3846.0387    
  38845000  -3920.2703    
  38846000  -3864.7946    
  38847000  -3990.9412    
  38848000  -3865.1256    
  38849000  -3900.9318    
  38850000  -3928.7091    
  38851000  -3922.1499    
  38852000  -4045.9322    
  38853000  -3893.0105    
  38854000  -3889.399     
  38855000  -3956.6418    
  38856000  -4020.3298    
  38857000  -4084.1493    
  38858000  -4012.2227    
  38859000  -3955.7148    
  38860000  -3972.6359    
  38861000  -4003.4533    
  38862000  -3974.7755    
  38863000  -3935.3828    
  38864000  -3924.9135    
  38865000  -4017.1333    
  38866000  -3991.6896    
  38867000  -4018.7624    
  38868000  -4010.3816    
  38869000  -4054.9573    
  38870000  -3924.0198    
  38871000  -4086.4617    
  38872000  -4119.9888    
  38873000  -3955.4993    
  38874000  -3972.0225    
  38875000  -4015.0984    
  38876000  -4130.4476    
  38877000  -4037.0827    
  38878000  -4163.0818    
  38879000  -4072.0052    
  38880000  -4081.3477    
  38881000  -4097.6363    
  38882000  -4028.7608    
  38883000  -4034.1268    
  38884000  -4135.798     
  38885000  -4182.4633    
  38886000  -4018.6721    
  38887000  -4040.3587    
  38888000  -4056.6326    
  38889000  -4038.1324    
  38890000  -4074.7899    
  38891000  -4028.2497    
  38892000  -4057.2779    
  38893000  -4065.7166    
  38894000  -4117.4764    
  38895000  -4131.6679    
  38896000  -4139.3938    
  38897000  -4227.7336    
  38898000  -4219.786     
  38899000  -4147.3678    
  38900000  -4132.576     
  38901000  -4101.797     
  38902000  -4145.1223    
  38903000  -4212.979     
  38904000  -4256.2546    
  38905000  -4111.3711    
  38906000  -4058.9244    
  38907000  -4065.5812    
  38908000  -4090.9924    
  38909000  -4020.1196    
  38910000  -4092.9458    
  38911000  -4185.8983    
  38912000  -4109.242     
  38913000  -4142.828     
  38914000  -4108.7579    
  38915000  -4050.3535    
  38916000  -4037.8377    
  38917000  -4047.586     
  38918000  -4119.7399    
  38919000  -4043.6265    
  38920000  -4038.8812    
  38921000  -3997.8582    
  38922000  -4047.3477    
  38923000  -4149.2961    
  38924000  -4189.1727    
  38925000  -4106.9714    
  38926000  -4105.3317    
  38927000  -3997.1104    
  38928000  -4051.5455    
  38929000  -4030.5254    
  38930000  -4073.091     
  38931000  -4059.169     
  38932000  -4016.75      
  38933000  -4035.1963    
  38934000  -4036.2013    
  38935000  -4002.5296    
  38936000  -4026.6884    
  38937000  -3991.5398    
  38938000  -3995.5489    
  38939000  -4010.6172    
  38940000  -4005.0477    
  38941000  -4106.6987    
  38942000  -4026.0267    
  38943000  -3954.7743    
  38944000  -4044.8225    
  38945000  -3941.2559    
  38946000  -3996.5992    
  38947000  -4090.0799    
  38948000  -3921.1787    
  38949000  -4035.7612    
  38950000  -3938.9424    
  38951000  -4036.1019    
  38952000  -4069.2538    
  38953000  -4065.3578    
  38954000  -4065.6855    
  38955000  -4077.2218    
  38956000  -4051.4326    
  38957000  -4125.2399    
  38958000  -4088.6976    
  38959000  -4044.5046    
  38960000  -4032.6046    
  38961000  -4066.0914    
  38962000  -4032.0762    
  38963000  -4074.4432    
  38964000  -4144.0663    
  38965000  -4131.9944    
  38966000  -4080.2337    
  38967000  -4120.559     
  38968000  -4186.7346    
  38969000  -4104.461     
  38970000  -4072.2652    
  38971000  -4101.7495    
  38972000  -4091.7753    
  38973000  -4196.1986    
  38974000  -4099.6565    
  38975000  -4072.4114    
  38976000  -4181.7382    
  38977000  -4150.3926    
  38978000  -4130.8038    
  38979000  -4094.1981    
  38980000  -4107.3555    
  38981000  -4063.0431    
  38982000  -4083.9207    
  38983000  -4085.0908    
  38984000  -4077.7328    
  38985000  -4082.074     
  38986000  -4112.2191    
  38987000  -4032.2786    
  38988000  -4092.878     
  38989000  -4007.1874    
  38990000  -4008.2424    
  38991000  -3989.8714    
  38992000  -3990.563     
  38993000  -3935.213     
  38994000  -3971.6114    
  38995000  -3968.2091    
  38996000  -3875.0573    
  38997000  -3960.3631    
  38998000  -3945.9302    
  38999000  -3828.8216    
  39000000  -3794.8469    
  39001000  -3843.0181    
  39002000  -3752.902     
  39003000  -3657.3268    
  39004000  -3749.8893    
  39005000  -3703.6389    
  39006000  -3758.4307    
  39007000  -3807.1767    
  39008000  -3848.7821    
  39009000  -3807.9202    
  39010000  -3796.6686    
  39011000  -3811.9706    
  39012000  -3818.5566    
  39013000  -3806.491     
  39014000  -3910.7531    
  39015000  -3875.5274    
  39016000  -3824.4778    
  39017000  -3860.7588    
  39018000  -3823.8762    
  39019000  -3865.7387    
  39020000  -3810.5193    
  39021000  -4051.4786    
  39022000  -3959.1011    
  39023000  -3961.2005    
  39024000  -3979.2804    
  39025000  -3871.6915    
  39026000  -4015.0206    
  39027000  -4021.2204    
  39028000  -3988.3098    
  39029000  -4049.23      
  39030000  -4073.5177    
  39031000  -3968.5083    
  39032000  -4006.5415    
  39033000  -3920.1798    
  39034000  -3981.892     
  39035000  -3948.5972    
  39036000  -3867.0101    
  39037000  -3915.7876    
  39038000  -3924.7045    
  39039000  -3778.4797    
  39040000  -3813.9392    
  39041000  -3833.1905    
  39042000  -3811.7381    
  39043000  -3838.7441    
  39044000  -3802.4362    
  39045000  -3876.8627    
  39046000  -3865.1184    
  39047000  -3837.3727    
  39048000  -3877.8722    
  39049000  -3839.7761    
  39050000  -3767.4222    
  39051000  -3802.2078    
  39052000  -3788.5902    
  39053000  -3780.8225    
  39054000  -3902.8983    
  39055000  -3832.346     
  39056000  -3905.1547    
  39057000  -3957.9284    
  39058000  -3874.099     
  39059000  -3858.9171    
  39060000  -3927.1983    
  39061000  -3832.7868    
  39062000  -3865.4228    
  39063000  -3752.8121    
  39064000  -3851.1694    
  39065000  -3832.7358    
  39066000  -3814.4854    
  39067000  -3804.7465    
  39068000  -3805.3385    
  39069000  -3749.1813    
  39070000  -3835.4563    
  39071000  -3915.5239    
  39072000  -3844.8136    
  39073000  -3884.4885    
  39074000  -3797.5124    
  39075000  -3856.8351    
  39076000  -3788.8404    
  39077000  -3689.7134    
  39078000  -3656.0395    
  39079000  -3702.0054    
  39080000  -3682.6377    
  39081000  -3768.531     
  39082000  -3775.9452    
  39083000  -3808.8812    
  39084000  -3673.9171    
  39085000  -3716.3048    
  39086000  -3779.1079    
  39087000  -3715.0405    
  39088000  -3827.7154    
  39089000  -3753.6669    
  39090000  -3808.0504    
  39091000  -3701.7904    
  39092000  -3803.2575    
  39093000  -3676.0061    
  39094000  -3803.4346    
  39095000  -3703.0903    
  39096000  -3649.7597    
  39097000  -3767.5775    
  39098000  -3742.2755    
  39099000  -3741.2413    
  39100000  -3701.5092    
  39101000  -3787.4731    
  39102000  -3760.6879    
  39103000  -3780.338     
  39104000  -3764.6088    
  39105000  -3770.0632    
  39106000  -3718.3321    
  39107000  -3717.8099    
  39108000  -3835.655     
  39109000  -3833.5474    
  39110000  -3772.269     
  39111000  -3886.6451    
  39112000  -3727.1129    
  39113000  -3815.5596    
  39114000  -3783.6006    
  39115000  -3868.6366    
  39116000  -3757.0974    
  39117000  -3770.9426    
  39118000  -3715.5314    
  39119000  -3721.3895    
  39120000  -3780.0277    
  39121000  -3781.4535    
  39122000  -3779.253     
  39123000  -3804.4505    
  39124000  -3861.0635    
  39125000  -3885.8445    
  39126000  -3743.7029    
  39127000  -3890.3204    
  39128000  -3828.1094    
  39129000  -3797.1919    
  39130000  -3754.7583    
  39131000  -3809.1319    
  39132000  -3915.0659    
  39133000  -3868.1846    
  39134000  -3882.4824    
  39135000  -3792.5828    
  39136000  -3882.779     
  39137000  -3938.0459    
  39138000  -3929.4646    
  39139000  -3891.1505    
  39140000  -3867.4906    
  39141000  -3944.0287    
  39142000  -3907.1384    
  39143000  -3964.0449    
  39144000  -3924.9679    
  39145000  -3952.8914    
  39146000  -3967.4253    
  39147000  -3928.367     
  39148000  -3986.6353    
  39149000  -3955.2821    
  39150000  -3933.705     
  39151000  -4041.3813    
  39152000  -3989.433     
  39153000  -4009.5286    
  39154000  -3959.1022    
  39155000  -3904.5647    
  39156000  -4066.7       
  39157000  -3986.164     
  39158000  -3928.1953    
  39159000  -4032.8055    
  39160000  -4028.3072    
  39161000  -4057.6375    
  39162000  -3905.5465    
  39163000  -4072.6622    
  39164000  -4017.1435    
  39165000  -3942.8992    
  39166000  -3976.8181    
  39167000  -4045.5369    
  39168000  -3955.7697    
  39169000  -3946.2966    
  39170000  -3987.4315    
  39171000  -3977.9962    
  39172000  -4005.6073    
  39173000  -4014.0928    
  39174000  -4035.5791    
  39175000  -3972.8838    
  39176000  -3961.0222    
  39177000  -3921.2203    
  39178000  -3925.9678    
  39179000  -3966.9421    
  39180000  -3972.3086    
  39181000  -4002.5019    
  39182000  -3873.9214    
  39183000  -3946.8951    
  39184000  -3897.5086    
  39185000  -4016.7969    
  39186000  -3856.0175    
  39187000  -4008.3159    
  39188000  -3886.5209    
  39189000  -3901.3615    
  39190000  -3977.9415    
  39191000  -3861.5575    
  39192000  -3962.1648    
  39193000  -3932.0737    
  39194000  -4021.7256    
  39195000  -3950.4028    
  39196000  -4014.2376    
  39197000  -3954.3518    
  39198000  -3942.462     
  39199000  -3939.9146    
  39200000  -3947.4553    
  39201000  -3914.8871    
  39202000  -3952.2089    
  39203000  -3891.6913    
  39204000  -3989.0402    
  39205000  -3941.9932    
  39206000  -3928.0205    
  39207000  -3853.8958    
  39208000  -3870.4931    
  39209000  -3875.2364    
  39210000  -3894.1312    
  39211000  -3858.3616    
  39212000  -3935.582     
  39213000  -3934.1187    
  39214000  -3943.6533    
  39215000  -3910.1936    
  39216000  -3952.9947    
  39217000  -3992.0066    
  39218000  -4081.3764    
  39219000  -4035.5407    
  39220000  -3993.2775    
  39221000  -4032.624     
  39222000  -3917.2747    
  39223000  -3958.0808    
  39224000  -3959.7099    
  39225000  -3854.4266    
  39226000  -3967.2224    
  39227000  -3858.1719    
  39228000  -3962.3471    
  39229000  -3939.2187    
  39230000  -3926.0053    
  39231000  -4006.8596    
  39232000  -3960.468     
  39233000  -3830.5053    
  39234000  -3972.4244    
  39235000  -4002.3037    
  39236000  -3921.0355    
  39237000  -3865.528     
  39238000  -4018.0644    
  39239000  -3928.0656    
  39240000  -3987.5421    
  39241000  -3970.7916    
  39242000  -3973.9343    
  39243000  -4058.8585    
  39244000  -4072.2087    
  39245000  -4011.4055    
  39246000  -3985.5907    
  39247000  -4019.7961    
  39248000  -3978.2468    
  39249000  -4047.8527    
  39250000  -4032.2023    
  39251000  -4054.9846    
  39252000  -3965.0821    
  39253000  -4019.1649    
  39254000  -3968.2734    
  39255000  -3993.2871    
  39256000  -4001.818     
  39257000  -3889.1222    
  39258000  -3974.7724    
  39259000  -3901.6156    
  39260000  -3983.9357    
  39261000  -3928.6918    
  39262000  -3803.0606    
  39263000  -3832.7145    
  39264000  -3985.2049    
  39265000  -3877.5986    
  39266000  -3788.7695    
  39267000  -3817.8485    
  39268000  -3790.2404    
  39269000  -3884.7426    
  39270000  -3854.2643    
  39271000  -3751.3849    
  39272000  -3774.7475    
  39273000  -3962.6925    
  39274000  -3966.8059    
  39275000  -3903.2964    
  39276000  -3982.3668    
  39277000  -3965.3867    
  39278000  -4000.1087    
  39279000  -3846.3734    
  39280000  -3880.39      
  39281000  -3903.244     
  39282000  -3945.3719    
  39283000  -3906.1703    
  39284000  -3939.9339    
  39285000  -3895.4996    
  39286000  -3885.5165    
  39287000  -3958.3781    
  39288000  -3826.3487    
  39289000  -3977.017     
  39290000  -3963.7032    
  39291000  -3927.658     
  39292000  -3879.0818    
  39293000  -3820.6847    
  39294000  -3875.436     
  39295000  -3902.0314    
  39296000  -3948.2123    
  39297000  -3859.7874    
  39298000  -3882.2241    
  39299000  -3850.8376    
  39300000  -3996.5573    
  39301000  -3928.6542    
  39302000  -3958.6121    
  39303000  -3944.6774    
  39304000  -4096.5015    
  39305000  -3953.105     
  39306000  -4144.8702    
  39307000  -4091.4838    
  39308000  -3981.4431    
  39309000  -4034.9293    
  39310000  -3968.7491    
  39311000  -4065.59      
  39312000  -4102.7911    
  39313000  -3973.1093    
  39314000  -3994.5242    
  39315000  -3965.1385    
  39316000  -4028.2258    
  39317000  -3935.6719    
  39318000  -3959.2129    
  39319000  -4025.8096    
  39320000  -3983.5308    
  39321000  -3971.4682    
  39322000  -3924.5653    
  39323000  -4008.8784    
  39324000  -3969.606     
  39325000  -4005.3035    
  39326000  -3998.118     
  39327000  -3992.6519    
  39328000  -4010.1948    
  39329000  -4010.791     
  39330000  -3989.5714    
  39331000  -3921.4255    
  39332000  -4025.7831    
  39333000  -4117.4207    
  39334000  -4066.2066    
  39335000  -4113.414     
  39336000  -3974.7614    
  39337000  -4058.4611    
  39338000  -3995.2266    
  39339000  -3957.7971    
  39340000  -3988.7998    
  39341000  -3973.3682    
  39342000  -3998.2617    
  39343000  -4004.0561    
  39344000  -4034.8337    
  39345000  -4023.0154    
  39346000  -4002.9399    
  39347000  -4002.374     
  39348000  -4068.2566    
  39349000  -3973.8186    
  39350000  -4103.8925    
  39351000  -4186.4341    
  39352000  -4086.8801    
  39353000  -4075.1678    
  39354000  -4119.1209    
  39355000  -4013.828     
  39356000  -4196.309     
  39357000  -4093.8201    
  39358000  -4114.1218    
  39359000  -4102.3568    
  39360000  -4162.6918    
  39361000  -4149.2612    
  39362000  -4068.6942    
  39363000  -4158.3483    
  39364000  -4113.5999    
  39365000  -4238.2404    
  39366000  -4130.1682    
  39367000  -4026.0096    
  39368000  -4119.7145    
  39369000  -4111.4855    
  39370000  -4079.3104    
  39371000  -4220.3158    
  39372000  -4110.2734    
  39373000  -4184.193     
  39374000  -4027.0259    
  39375000  -4075.5246    
  39376000  -4064.7134    
  39377000  -4100.8425    
  39378000  -4058.9091    
  39379000  -4053.7511    
  39380000  -4078.0582    
  39381000  -4077.7825    
  39382000  -4069.6161    
  39383000  -4074.3606    
  39384000  -4168.7004    
  39385000  -4149.2888    
  39386000  -4085.5308    
  39387000  -4115.8737    
  39388000  -4099.9453    
  39389000  -4179.1507    
  39390000  -4206.2878    
  39391000  -4151.8579    
  39392000  -4120.6811    
  39393000  -4158.7451    
  39394000  -4078.0489    
  39395000  -4024.8018    
  39396000  -4078.8339    
  39397000  -4050.0609    
  39398000  -3974.4726    
  39399000  -4088.2032    
  39400000  -3902.0077    
  39401000  -3958.4624    
  39402000  -3940.8044    
  39403000  -3923.12      
  39404000  -3973.9998    
  39405000  -3944.4319    
  39406000  -3913.4164    
  39407000  -3882.5912    
  39408000  -3961.9598    
  39409000  -3922.1838    
  39410000  -3924.5235    
  39411000  -4009.6152    
  39412000  -3785.4818    
  39413000  -3881.1384    
  39414000  -4026.6232    
  39415000  -3904.8908    
  39416000  -3880.8034    
  39417000  -3900.8054    
  39418000  -3884.6761    
  39419000  -3903.6686    
  39420000  -3897.1749    
  39421000  -3974.8934    
  39422000  -3906.9154    
  39423000  -3962.3012    
  39424000  -3846.5812    
  39425000  -3909.8542    
  39426000  -3796.382     
  39427000  -3856.0744    
  39428000  -3790.7099    
  39429000  -3829.803     
  39430000  -3855.9402    
  39431000  -3900.0641    
  39432000  -3939.8914    
  39433000  -3892.9435    
  39434000  -3842.0324    
  39435000  -3959.4577    
  39436000  -3946.1109    
  39437000  -3959.3871    
  39438000  -3944.3665    
  39439000  -3941.7699    
  39440000  -3932.2628    
  39441000  -3967.5131    
  39442000  -4008.0359    
  39443000  -3970.0396    
  39444000  -3910.1962    
  39445000  -3937.9212    
  39446000  -3946.3548    
  39447000  -4016.176     
  39448000  -3977.9111    
  39449000  -4010.5435    
  39450000  -3952.0506    
  39451000  -3983.2041    
  39452000  -3881.3325    
  39453000  -3985.0412    
  39454000  -3893.8818    
  39455000  -3928.06      
  39456000  -3979.2852    
  39457000  -3920.3677    
  39458000  -3870.2015    
  39459000  -3888.5278    
  39460000  -3942.8145    
  39461000  -3984.8932    
  39462000  -3971.6447    
  39463000  -4095.4389    
  39464000  -4084.1369    
  39465000  -4019.9943    
  39466000  -3952.7792    
  39467000  -3968.6741    
  39468000  -3989.1265    
  39469000  -3935.9447    
  39470000  -4014.3206    
  39471000  -4074.8404    
  39472000  -4043.8739    
  39473000  -4065.5263    
  39474000  -3903.2024    
  39475000  -3957.9563    
  39476000  -4130.0058    
  39477000  -4064.3024    
  39478000  -4037.9064    
  39479000  -3989.0218    
  39480000  -3926.1278    
  39481000  -3887.9954    
  39482000  -3924.5305    
  39483000  -3969.8338    
  39484000  -4033.7621    
  39485000  -4045.8791    
  39486000  -3996.0486    
  39487000  -4016.3767    
  39488000  -4076.4891    
  39489000  -3967.8385    
  39490000  -4043.5836    
  39491000  -3978.4109    
  39492000  -3901.1831    
  39493000  -3996.9797    
  39494000  -3909.1334    
  39495000  -4022.8397    
  39496000  -3884.3826    
  39497000  -3867.8506    
  39498000  -3839.4584    
  39499000  -3835.8062    
  39500000  -3878.0466    
  39501000  -3886.0675    
  39502000  -3847.9876    
  39503000  -3764.586     
  39504000  -3740.3655    
  39505000  -3736.6261    
  39506000  -3766.8653    
  39507000  -3795.3961    
  39508000  -3858.1923    
  39509000  -3889.4709    
  39510000  -3863.4005    
  39511000  -3914.2623    
  39512000  -3827.79      
  39513000  -3820.1363    
  39514000  -3839.243     
  39515000  -3785.3209    
  39516000  -3891.4331    
  39517000  -3872.6878    
  39518000  -4034.2869    
  39519000  -3962.4202    
  39520000  -3948.3285    
  39521000  -3928.2644    
  39522000  -3926.0863    
  39523000  -4018.4967    
  39524000  -4009.0561    
  39525000  -4075.6172    
  39526000  -4058.8038    
  39527000  -4076.0253    
  39528000  -3991.8854    
  39529000  -3978.3514    
  39530000  -4085.0956    
  39531000  -4008.3322    
  39532000  -4172.0045    
  39533000  -4078.5048    
  39534000  -4026.0012    
  39535000  -4038.7126    
  39536000  -4026.4074    
  39537000  -3979.43      
  39538000  -4048.2458    
  39539000  -4072.2853    
  39540000  -4037.6907    
  39541000  -4040.866     
  39542000  -3990.497     
  39543000  -4141.3531    
  39544000  -4070.6868    
  39545000  -4031.6981    
  39546000  -4110.7395    
  39547000  -4103.3196    
  39548000  -4125.5652    
  39549000  -4007.7213    
  39550000  -4133.4356    
  39551000  -4112.1874    
  39552000  -4020.663     
  39553000  -4150.8834    
  39554000  -3976.8783    
  39555000  -4059.6865    
  39556000  -4032.1358    
  39557000  -4156.8605    
  39558000  -4068.5093    
  39559000  -4058.2861    
  39560000  -4142.9349    
  39561000  -4116.8682    
  39562000  -4010.4673    
  39563000  -4055.0893    
  39564000  -4046.9703    
  39565000  -3946.215     
  39566000  -4016.9824    
  39567000  -4095.8262    
  39568000  -4064.0497    
  39569000  -4044.3828    
  39570000  -4085.8506    
  39571000  -3986.3044    
  39572000  -3974.3171    
  39573000  -4069.7962    
  39574000  -3916.1018    
  39575000  -3932.4136    
  39576000  -3845.4863    
  39577000  -3978.0634    
  39578000  -4123.5304    
  39579000  -4047.2813    
  39580000  -4011.6812    
  39581000  -3967.7592    
  39582000  -3987.231     
  39583000  -3781.3724    
  39584000  -3863.5897    
  39585000  -3833.753     
  39586000  -3828.2744    
  39587000  -3828.8176    
  39588000  -3727.4629    
  39589000  -3793.7085    
  39590000  -3781.4769    
  39591000  -3758.7625    
  39592000  -3771.4623    
  39593000  -3741.439     
  39594000  -3776.3726    
  39595000  -3822.6201    
  39596000  -3873.6873    
  39597000  -3804.2426    
  39598000  -3727.0661    
  39599000  -3888.9429    
  39600000  -3729.331     
  39601000  -3804.2706    
  39602000  -3696.7328    
  39603000  -3733.0169    
  39604000  -3762.2729    
  39605000  -3739.7043    
  39606000  -3857.3095    
  39607000  -3717.3041    
  39608000  -3788.3867    
  39609000  -3796.3675    
  39610000  -3709.8046    
  39611000  -3826.472     
  39612000  -3694.5462    
  39613000  -3735.1738    
  39614000  -3794.3508    
  39615000  -3789.4617    
  39616000  -3800.5299    
  39617000  -3777.5467    
  39618000  -3818.2855    
  39619000  -3792.9464    
  39620000  -3773.4643    
  39621000  -3793.1989    
  39622000  -3818.0979    
  39623000  -3709.9169    
  39624000  -3888.5639    
  39625000  -3903.5755    
  39626000  -3718.9641    
  39627000  -3779.6338    
  39628000  -3834.6007    
  39629000  -3859.3174    
  39630000  -3821.2399    
  39631000  -3779.7219    
  39632000  -3862.8476    
  39633000  -3821.7609    
  39634000  -3917.6575    
  39635000  -3871.6104    
  39636000  -3858.7041    
  39637000  -3934.8908    
  39638000  -3931.4021    
  39639000  -3938.3369    
  39640000  -4041.2217    
  39641000  -3975.0509    
  39642000  -3935.3301    
  39643000  -3901.1344    
  39644000  -3995.7612    
  39645000  -3993.7197    
  39646000  -4018.2261    
  39647000  -3945.3795    
  39648000  -3964.9058    
  39649000  -4109.1605    
  39650000  -4067.2486    
  39651000  -4042.7529    
  39652000  -4030.862     
  39653000  -4021.6504    
  39654000  -3927.7772    
  39655000  -4038.6551    
  39656000  -3834.7318    
  39657000  -3927.4207    
  39658000  -4018.145     
  39659000  -3960.1672    
  39660000  -3916.8438    
  39661000  -3950.9208    
  39662000  -4038.4317    
  39663000  -3985.4947    
  39664000  -3993.8548    
  39665000  -4061.1589    
  39666000  -3940.4214    
  39667000  -3894.4177    
  39668000  -4019.985     
  39669000  -3956.162     
  39670000  -3985.9451    
  39671000  -3984.5836    
  39672000  -3983.955     
  39673000  -4018.6705    
  39674000  -3842.4319    
  39675000  -3903.6886    
  39676000  -3928.8732    
  39677000  -3915.0075    
  39678000  -3885.7732    
  39679000  -3867.6395    
  39680000  -3904.5266    
  39681000  -3810.356     
  39682000  -3960.2553    
  39683000  -3856.1013    
  39684000  -3828.3417    
  39685000  -3843.8339    
  39686000  -3894.7467    
  39687000  -3926.9093    
  39688000  -3849.0358    
  39689000  -3771.6815    
  39690000  -3863.6859    
  39691000  -3877.662     
  39692000  -3902.0985    
  39693000  -3885.1295    
  39694000  -3891.6571    
  39695000  -3963.7157    
  39696000  -3902.4055    
  39697000  -3883.3881    
  39698000  -3930.5459    
  39699000  -4001.7276    
  39700000  -4020.25      
  39701000  -3941.2373    
  39702000  -4003.4268    
  39703000  -3982.4739    
  39704000  -3995.5792    
  39705000  -3962.0833    
  39706000  -4004.1354    
  39707000  -3930.5117    
  39708000  -3915.7885    
  39709000  -3943.0646    
  39710000  -3958.8254    
  39711000  -3893.8611    
  39712000  -4091.333     
  39713000  -4029.6162    
  39714000  -3994.427     
  39715000  -3954.5865    
  39716000  -4016.3481    
  39717000  -4047.2888    
  39718000  -3947.7229    
  39719000  -3960.0401    
  39720000  -4152.8931    
  39721000  -4152.1336    
  39722000  -4098.0244    
  39723000  -4036.951     
  39724000  -4101.9577    
  39725000  -4037.4003    
  39726000  -4039.7295    
  39727000  -4102.8743    
  39728000  -4021.9534    
  39729000  -4104.8131    
  39730000  -3923.7958    
  39731000  -4109.3244    
  39732000  -4016.05      
  39733000  -4018.8835    
  39734000  -4033.8837    
  39735000  -4063.1999    
  39736000  -3961.0977    
  39737000  -4093.9713    
  39738000  -4018.4764    
  39739000  -3980.4368    
  39740000  -4050.9896    
  39741000  -4030.5621    
  39742000  -3977.6794    
  39743000  -3982.1933    
  39744000  -4015.8059    
  39745000  -4027.1808    
  39746000  -4112.7692    
  39747000  -4029.5553    
  39748000  -4123.864     
  39749000  -3990.5697    
  39750000  -4057.2245    
  39751000  -4065.3797    
  39752000  -4109.974     
  39753000  -4080.9982    
  39754000  -4084.3943    
  39755000  -4063.5169    
  39756000  -4116.3427    
  39757000  -4026.9129    
  39758000  -4084.4626    
  39759000  -4026.0883    
  39760000  -4083.9085    
  39761000  -4054.3141    
  39762000  -4056.5709    
  39763000  -4066.7838    
  39764000  -4100.2434    
  39765000  -4094.4821    
  39766000  -4014.0149    
  39767000  -3957.527     
  39768000  -3997.597     
  39769000  -4030.0938    
  39770000  -3977.0637    
  39771000  -4016.9963    
  39772000  -4049.7738    
  39773000  -3979.5786    
  39774000  -4035.3035    
  39775000  -4001.2573    
  39776000  -4012.7195    
  39777000  -4013.3524    
  39778000  -4067.7414    
  39779000  -4043.0086    
  39780000  -4138.5883    
  39781000  -4126.6872    
  39782000  -4174.1937    
  39783000  -4199.2197    
  39784000  -4044.8901    
  39785000  -4063.0256    
  39786000  -4204.2824    
  39787000  -4110.3636    
  39788000  -4155.3422    
  39789000  -4078.3042    
  39790000  -4067.7541    
  39791000  -4065.7529    
  39792000  -4082.3298    
  39793000  -3955.6286    
  39794000  -3993.3077    
  39795000  -3979.4234    
  39796000  -4060.7497    
  39797000  -4007.8714    
  39798000  -4014.7822    
  39799000  -3991.097     
  39800000  -4009.9419    
  39801000  -3927.8431    
  39802000  -3979.5467    
  39803000  -3905.8271    
  39804000  -3919.997     
  39805000  -3888.4432    
  39806000  -3812.493     
  39807000  -3830.9902    
  39808000  -3887.5464    
  39809000  -3973.154     
  39810000  -3952.5908    
  39811000  -3887.666     
  39812000  -3873.4868    
  39813000  -3843.8641    
  39814000  -3917.4229    
  39815000  -3887.3794    
  39816000  -3860.9909    
  39817000  -3906.0463    
  39818000  -3888.8845    
  39819000  -3906.1058    
  39820000  -4018.3087    
  39821000  -4027.9197    
  39822000  -4003.5074    
  39823000  -3945.5119    
  39824000  -3844.1699    
  39825000  -3874.5485    
  39826000  -3881.2472    
  39827000  -3894.4246    
  39828000  -3947.5821    
  39829000  -3955.1879    
  39830000  -3919.8       
  39831000  -3949.7666    
  39832000  -4036.5295    
  39833000  -3925.3304    
  39834000  -3928.8407    
  39835000  -3909.1862    
  39836000  -4008.7104    
  39837000  -3954.5019    
  39838000  -3931.0389    
  39839000  -3834.9546    
  39840000  -3872.3242    
  39841000  -3806.0767    
  39842000  -3893.3402    
  39843000  -3851.643     
  39844000  -3784.9445    
  39845000  -3832.4695    
  39846000  -3919.1825    
  39847000  -3801.1594    
  39848000  -3718.1076    
  39849000  -3736.8034    
  39850000  -3771.9017    
  39851000  -3845.1886    
  39852000  -3973.3819    
  39853000  -4000.8473    
  39854000  -3963.9979    
  39855000  -3910.323     
  39856000  -4002.0269    
  39857000  -3917.707     
  39858000  -3895.9111    
  39859000  -3996.2939    
  39860000  -3872.7805    
  39861000  -3958.6322    
  39862000  -3852.2004    
  39863000  -3958.1029    
  39864000  -4020.6215    
  39865000  -3831.6697    
  39866000  -3875.6172    
  39867000  -3878.6184    
  39868000  -3817.8172    
  39869000  -3822.0468    
  39870000  -3867.9047    
  39871000  -3932.1842    
  39872000  -3896.8738    
  39873000  -3923.9162    
  39874000  -3844.7953    
  39875000  -3906.3328    
  39876000  -3915.1204    
  39877000  -3885.2115    
  39878000  -3909.0223    
  39879000  -3889.2503    
  39880000  -3936.6085    
  39881000  -3994.9563    
  39882000  -4066.5386    
  39883000  -4076.0807    
  39884000  -4040.1101    
  39885000  -4063.6075    
  39886000  -4123.6053    
  39887000  -4024.0011    
  39888000  -3989.5442    
  39889000  -4011.7405    
  39890000  -4073.5899    
  39891000  -4083.0306    
  39892000  -4045.1827    
  39893000  -4004.144     
  39894000  -4013.8755    
  39895000  -4096.1294    
  39896000  -4036.7388    
  39897000  -4014.5668    
  39898000  -3964.1416    
  39899000  -3954.625     
  39900000  -4136.0816    
  39901000  -4069.3741    
  39902000  -4002.2123    
  39903000  -4083.4856    
  39904000  -4032.8686    
  39905000  -3988.9025    
  39906000  -3945.8756    
  39907000  -3995.5419    
  39908000  -3928.6422    
  39909000  -4006.1982    
  39910000  -3957.3539    
  39911000  -4012.1119    
  39912000  -4033.8044    
  39913000  -4028.0457    
  39914000  -4043.4408    
  39915000  -4014.7811    
  39916000  -3962.7632    
  39917000  -4076.0636    
  39918000  -4031.1627    
  39919000  -4026.6756    
  39920000  -4000.4167    
  39921000  -4082.7117    
  39922000  -4021.5577    
  39923000  -3967.6421    
  39924000  -4013.661     
  39925000  -3965.8509    
  39926000  -3992.7174    
  39927000  -3948.7853    
  39928000  -3982.1347    
  39929000  -3957.4675    
  39930000  -3960.5673    
  39931000  -3906.8944    
  39932000  -3877.9302    
  39933000  -3893.6656    
  39934000  -3918.6244    
  39935000  -4019.4886    
  39936000  -3962.9816    
  39937000  -3982.5497    
  39938000  -3928.4682    
  39939000  -3848.0263    
  39940000  -4000.3927    
  39941000  -4056.6405    
  39942000  -3954.034     
  39943000  -3866.1424    
  39944000  -3946.3865    
  39945000  -3957.3813    
  39946000  -4009.1645    
  39947000  -3961.708     
  39948000  -3941.6108    
  39949000  -3966.1037    
  39950000  -3996.9847    
  39951000  -3987.5627    
  39952000  -4000.0424    
  39953000  -3969.4628    
  39954000  -4006.87      
  39955000  -3968.4941    
  39956000  -3939.2161    
  39957000  -4047.7527    
  39958000  -3979.1111    
  39959000  -4025.3691    
  39960000  -4014.8453    
  39961000  -4110.0836    
  39962000  -4050.1914    
  39963000  -4022.5295    
  39964000  -4039.1382    
  39965000  -4079.3903    
  39966000  -3932.7109    
  39967000  -4016.4075    
  39968000  -4032.0865    
  39969000  -4158.9377    
  39970000  -4143.7139    
  39971000  -4141.0948    
  39972000  -4113.455     
  39973000  -4234.4857    
  39974000  -4142.9101    
  39975000  -4063.9811    
  39976000  -4132.9155    
  39977000  -4177.3094    
  39978000  -4191.8505    
  39979000  -4059.4327    
  39980000  -4198.564     
  39981000  -4119.1201    
  39982000  -4226.6336    
  39983000  -4189.8521    
  39984000  -4162.0221    
  39985000  -4169.4964    
  39986000  -4273.7477    
  39987000  -4175.6313    
  39988000  -4058.2782    
  39989000  -4125.5507    
  39990000  -4072.376     
  39991000  -4036.625     
  39992000  -3998.0974    
  39993000  -4050.8316    
  39994000  -3996.7054    
  39995000  -4178.1701    
  39996000  -4079.8384    
  39997000  -4014.5173    
  39998000  -4109.5942    
  39999000  -4036.1661    
  40000000  -4066.0512    
  40001000  -4085.6055    
  40002000  -4047.9555    
  40003000  -4028.3893    
  40004000  -3979.5178    
  40005000  -3937.8127    
  40006000  -3923.0489    
  40007000  -4021.7948    
  40008000  -4048.71      
  40009000  -3988.2712    
  40010000  -3968.1583    
  40011000  -4004.1704    
  40012000  -3912.7627    
  40013000  -3959.9105    
  40014000  -3934.1608    
  40015000  -3864.1422    
  40016000  -3896.7571    
  40017000  -3810.7412    
  40018000  -3831.3657    
  40019000  -3888.4706    
  40020000  -3859.9469    
  40021000  -3893.1473    
  40022000  -3895.2998    
  40023000  -3919.4284    
  40024000  -3828.9976    
  40025000  -3899.3314    
  40026000  -3925.0048    
  40027000  -3940.0404    
  40028000  -3964.5142    
  40029000  -3923.3305    
  40030000  -3846.1226    
  40031000  -3861.984     
  40032000  -3919.3816    
  40033000  -3913.2869    
  40034000  -3972.6871    
  40035000  -3955.0706    
  40036000  -3946.6662    
  40037000  -4013.6089    
  40038000  -4023.7549    
  40039000  -3948.178     
  40040000  -4001.7641    
  40041000  -3935.2529    
  40042000  -3906.5918    
  40043000  -3975.4989    
  40044000  -3878.0083    
  40045000  -3953.5963    
  40046000  -3889.8818    
  40047000  -4031.7957    
  40048000  -3993.7107    
  40049000  -4075.6384    
  40050000  -4098.435     
  40051000  -4030.643     
  40052000  -4040.4488    
  40053000  -4033.1254    
  40054000  -4005.0951    
  40055000  -3991.2581    
  40056000  -3943.0649    
  40057000  -4024.5301    
  40058000  -4041.1621    
  40059000  -3970.1121    
  40060000  -3926.1123    
  40061000  -3959.8646    
  40062000  -4099.0245    
  40063000  -3999.1166    
  40064000  -4007.0952    
  40065000  -3965.1596    
  40066000  -3888.1623    
  40067000  -3874.8992    
  40068000  -3969.9409    
  40069000  -3980.4307    
  40070000  -3901.3473    
  40071000  -3865.8986    
  40072000  -3933.4607    
  40073000  -3947.2012    
  40074000  -4063.6341    
  40075000  -4013.1516    
  40076000  -3874.6953    
  40077000  -3880.5994    
  40078000  -3948.6234    
  40079000  -3875.3338    
  40080000  -3846.4217    
  40081000  -3987.9825    
  40082000  -3945.5594    
  40083000  -3905.2856    
  40084000  -3920.7623    
  40085000  -3866.1564    
  40086000  -3886.9599    
  40087000  -3870.7626    
  40088000  -3936.6428    
  40089000  -3919.0109    
  40090000  -3982.7137    
  40091000  -3899.0496    
  40092000  -4020.9688    
  40093000  -3897.7866    
  40094000  -3952.2786    
  40095000  -3974.1146    
  40096000  -3963.093     
  40097000  -4001.1715    
  40098000  -4048.5575    
  40099000  -3975.6809    
  40100000  -3986.7226    
  40101000  -3935.8892    
  40102000  -3980.1751    
  40103000  -3926.4417    
  40104000  -3885.9572    
  40105000  -3927.8748    
  40106000  -3876.5953    
  40107000  -3878.1282    
  40108000  -3897.532     
  40109000  -3808.3057    
  40110000  -3867.0057    
  40111000  -3968.0949    
  40112000  -3877.4565    
  40113000  -3894.3182    
  40114000  -3877.5657    
  40115000  -3982.4366    
  40116000  -3857.1523    
  40117000  -3873.1029    
  40118000  -3872.2525    
  40119000  -3852.5804    
  40120000  -3841.4495    
  40121000  -3917.8453    
  40122000  -3874.9248    
  40123000  -3816.4787    
  40124000  -3753.6095    
  40125000  -3767.0249    
  40126000  -3825.5552    
  40127000  -3881.8541    
  40128000  -3814.8357    
  40129000  -3842.4814    
  40130000  -3868.5634    
  40131000  -3831.4399    
  40132000  -3862.2276    
  40133000  -3879.831     
  40134000  -3833.6787    
  40135000  -3796.6883    
  40136000  -3861.2859    
  40137000  -3884.7194    
  40138000  -3859.4051    
  40139000  -3868.474     
  40140000  -3936.2365    
  40141000  -3814.2041    
  40142000  -3800.6823    
  40143000  -3804.6128    
  40144000  -3889.1055    
  40145000  -3973.2336    
  40146000  -3906.1394    
  40147000  -3936.747     
  40148000  -3944.8644    
  40149000  -3997.8455    
  40150000  -3980.4307    
  40151000  -4059.4022    
  40152000  -4074.8664    
  40153000  -4001.0747    
  40154000  -3993.3878    
  40155000  -4078.8892    
  40156000  -3994.1297    
  40157000  -4098.3888    
  40158000  -4085.4642    
  40159000  -4012.3984    
  40160000  -4127.0829    
  40161000  -4132.1797    
  40162000  -4027.686     
  40163000  -3936.2792    
  40164000  -4065.623     
  40165000  -4044.5734    
  40166000  -3990.3193    
  40167000  -4007.273     
  40168000  -4009.9758    
  40169000  -4001.3234    
  40170000  -3971.2249    
  40171000  -3968.0387    
  40172000  -3950.4065    
  40173000  -4014.3724    
  40174000  -3993.8404    
  40175000  -4017.4988    
  40176000  -3974.5751    
  40177000  -4012.5072    
  40178000  -3963.0054    
  40179000  -3947.3349    
  40180000  -4088.4643    
  40181000  -4153.9024    
  40182000  -4057.8273    
  40183000  -4133.3415    
  40184000  -4138.9453    
  40185000  -4065.9423    
  40186000  -4022.353     
  40187000  -4038.7807    
  40188000  -4077.4508    
  40189000  -3949.8974    
  40190000  -4015.4885    
  40191000  -3998.7417    
  40192000  -3939.3641    
  40193000  -3957.1278    
  40194000  -3947.7882    
  40195000  -3911.0185    
  40196000  -3937.7203    
  40197000  -3969.214     
  40198000  -3879.2429    
  40199000  -3994.2778    
  40200000  -3834.0674    
  40201000  -3975.9622    
  40202000  -3898.4945    
  40203000  -3880.6414    
  40204000  -3850.1254    
  40205000  -3941.5724    
  40206000  -3841.8476    
  40207000  -3863.9935    
  40208000  -3873.5335    
  40209000  -3904.6964    
  40210000  -3793.5854    
  40211000  -3889.6233    
  40212000  -3865.7051    
  40213000  -3867.4419    
  40214000  -3984.5662    
  40215000  -3887.3843    
  40216000  -3909.5082    
  40217000  -3906.4483    
  40218000  -3923.4828    
  40219000  -3920.4094    
  40220000  -3913.7336    
  40221000  -3870.784     
  40222000  -4036.8876    
  40223000  -4003.5393    
  40224000  -4063.6824    
  40225000  -4021.8677    
  40226000  -4069.6631    
  40227000  -3986.4276    
  40228000  -4004.6169    
  40229000  -4013.2181    
  40230000  -3869.2736    
  40231000  -3984.1571    
  40232000  -3891.0768    
  40233000  -3958.2806    
  40234000  -3995.8278    
  40235000  -3937.4065    
  40236000  -3911.732     
  40237000  -3926.4794    
  40238000  -3923.1678    
  40239000  -4027.4893    
  40240000  -3995.0509    
  40241000  -3963.8124    
  40242000  -3976.6983    
  40243000  -3888.0458    
  40244000  -3928.201     
  40245000  -3944.6009    
  40246000  -4025.723     
  40247000  -4011.1349    
  40248000  -3984.4393    
  40249000  -3972.5212    
  40250000  -3934.4139    
  40251000  -4001.8945    
  40252000  -4020.3744    
  40253000  -4110.8608    
  40254000  -4087.3835    
  40255000  -4017.73      
  40256000  -3994.3445    
  40257000  -3977.7988    
  40258000  -4101.3811    
  40259000  -3974.0046    
  40260000  -3909.4363    
  40261000  -4010.2436    
  40262000  -4025.9421    
  40263000  -4075.0072    
  40264000  -4096.2055    
  40265000  -4026.4412    
  40266000  -3978.0509    
  40267000  -4021.3807    
  40268000  -4015.5801    
  40269000  -3999.2515    
  40270000  -4085.4386    
  40271000  -4060.8056    
  40272000  -4042.0866    
  40273000  -4062.3195    
  40274000  -4100.6193    
  40275000  -4182.9369    
  40276000  -4150.1264    
  40277000  -4076.2196    
  40278000  -3972.1332    
  40279000  -4092.7122    
  40280000  -4121.7701    
  40281000  -4156.7068    
  40282000  -4018.2977    
  40283000  -3971.4764    
  40284000  -4025.4916    
  40285000  -4128.717     
  40286000  -4045.3002    
  40287000  -4049.2906    
  40288000  -4075.039     
  40289000  -3998.2026    
  40290000  -3993.7091    
  40291000  -4004.6467    
  40292000  -4046.4083    
  40293000  -4054.4217    
  40294000  -3875.9387    
  40295000  -3946.6915    
  40296000  -3970.941     
  40297000  -3995.5546    
  40298000  -4083.2987    
  40299000  -4097.2344    
  40300000  -4099.58      
  40301000  -4147.7257    
  40302000  -4090.3245    
  40303000  -4140.1331    
  40304000  -4019.9698    
  40305000  -4026.3247    
  40306000  -3971.4765    
  40307000  -4011.8516    
  40308000  -3999.4082    
  40309000  -3927.4086    
  40310000  -3999.4403    
  40311000  -3887.958     
  40312000  -4002.9372    
  40313000  -3951.025     
  40314000  -3998.7182    
  40315000  -3920.2888    
  40316000  -3992.0873    
  40317000  -3964.161     
  40318000  -3937.7842    
  40319000  -3939.4214    
  40320000  -3935.7297    
  40321000  -3821.5795    
  40322000  -3991.5113    
  40323000  -3970.8314    
  40324000  -4008.139     
  40325000  -3953.5674    
  40326000  -3994.1287    
  40327000  -4011.7583    
  40328000  -3964.9318    
  40329000  -3912.9891    
  40330000  -3985.0525    
  40331000  -4016.1744    
  40332000  -3981.8311    
  40333000  -3958.3458    
  40334000  -3864.6292    
  40335000  -3889.2945    
  40336000  -3875.0357    
  40337000  -3954.2446    
  40338000  -3844.5665    
  40339000  -3939.1164    
  40340000  -3918.3429    
  40341000  -3836.9554    
  40342000  -3804.1148    
  40343000  -3762.1176    
  40344000  -3868.192     
  40345000  -3915.2217    
  40346000  -3832.4121    
  40347000  -3861.8481    
  40348000  -3767.8433    
  40349000  -3808.5071    
  40350000  -3798.7829    
  40351000  -3806.9045    
  40352000  -3858.7522    
  40353000  -3804.1407    
  40354000  -3874.121     
  40355000  -3884.7772    
  40356000  -3858.2848    
  40357000  -3916.8038    
  40358000  -3891.5853    
  40359000  -3980.3455    
  40360000  -3942.216     
  40361000  -3955.4582    
  40362000  -4059.1045    
  40363000  -4043.4733    
  40364000  -3976.5568    
  40365000  -4026.6567    
  40366000  -3997.0434    
  40367000  -4010.0409    
  40368000  -4095.0487    
  40369000  -4069.8889    
  40370000  -3912.0726    
  40371000  -4095.2867    
  40372000  -4039.2761    
  40373000  -3946.1896    
  40374000  -3956.3387    
  40375000  -4018.0498    
  40376000  -3995.8735    
  40377000  -4089.2863    
  40378000  -3993.1685    
  40379000  -4018.5065    
  40380000  -4015.2895    
  40381000  -3982.9294    
  40382000  -4079.5347    
  40383000  -4047.8072    
  40384000  -4132.8236    
  40385000  -4029.2063    
  40386000  -4013.2185    
  40387000  -4011.9772    
  40388000  -3991.8678    
  40389000  -3994.443     
  40390000  -4013.7714    
  40391000  -4087.9867    
  40392000  -3964.2985    
  40393000  -3948.8361    
  40394000  -3929.0014    
  40395000  -4002.8299    
  40396000  -3940.3935    
  40397000  -4109.9379    
  40398000  -3971.5448    
  40399000  -4046.231     
  40400000  -3960.9618    
  40401000  -3975.3049    
  40402000  -4009.1842    
  40403000  -4007.3217    
  40404000  -3953.3298    
  40405000  -3943.5235    
  40406000  -3914.3655    
  40407000  -3942.1636    
  40408000  -3910.5011    
  40409000  -4006.811     
  40410000  -3925.0382    
  40411000  -4001.0726    
  40412000  -4024.6883    
  40413000  -3922.0666    
  40414000  -3937.2436    
  40415000  -3949.2046    
  40416000  -3902.8212    
  40417000  -3941.6126    
  40418000  -4007.2022    
  40419000  -3929.8108    
  40420000  -3913.61      
  40421000  -3951.4541    
  40422000  -3917.9623    
  40423000  -4078.3942    
  40424000  -4016.0693    
  40425000  -4062.4096    
  40426000  -3902.5129    
  40427000  -3986.1105    
  40428000  -4007.7423    
  40429000  -3987.413     
  40430000  -3990.186     
  40431000  -3991.5512    
  40432000  -3942.0947    
  40433000  -4014.4934    
  40434000  -4042.5241    
  40435000  -3948.089     
  40436000  -3966.6834    
  40437000  -3980.6693    
  40438000  -3916.8512    
  40439000  -3958.3239    
  40440000  -4059.4979    
  40441000  -3991.2734    
  40442000  -3914.1287    
  40443000  -3984.0187    
  40444000  -3982.9333    
  40445000  -3964.0493    
  40446000  -4012.312     
  40447000  -3969.3874    
  40448000  -3992.048     
  40449000  -4090.3278    
  40450000  -4088.5011    
  40451000  -3957.801     
  40452000  -4084.6626    
  40453000  -4072.581     
  40454000  -4099.3165    
  40455000  -4123.3197    
  40456000  -4148.5064    
  40457000  -4060.0974    
  40458000  -3994.7651    
  40459000  -4113.7421    
  40460000  -4120.9716    
  40461000  -4185.5143    
  40462000  -4074.9263    
  40463000  -4115.5926    
  40464000  -4085.8572    
  40465000  -4125.0066    
  40466000  -4135.3997    
  40467000  -4110.5152    
  40468000  -4128.5714    
  40469000  -4152.3861    
  40470000  -4031.6979    
  40471000  -4095.2154    
  40472000  -4101.7544    
  40473000  -4143.7216    
  40474000  -4122.3654    
  40475000  -4057.0506    
  40476000  -4184.4152    
  40477000  -4127.5001    
  40478000  -4166.8045    
  40479000  -4218.0334    
  40480000  -4115.959     
  40481000  -3990.2704    
  40482000  -3930.1452    
  40483000  -3912.251     
  40484000  -3899.2112    
  40485000  -3926.1197    
  40486000  -3936.3043    
  40487000  -3974.7674    
  40488000  -3821.469     
  40489000  -3763.8683    
  40490000  -3903.8847    
  40491000  -3866.6763    
  40492000  -3793.1281    
  40493000  -3871.7198    
  40494000  -3983.1382    
  40495000  -3852.5663    
  40496000  -3920.7914    
  40497000  -3956.8859    
  40498000  -3855.1153    
  40499000  -3881.3323    
  40500000  -3895.3669    
  40501000  -3973.9153    
  40502000  -3942.9329    
  40503000  -4038.4292    
  40504000  -3952.5528    
  40505000  -4045.8697    
  40506000  -4095.6415    
  40507000  -3975.4513    
  40508000  -4073.8713    
  40509000  -4038.5329    
  40510000  -4056.6291    
  40511000  -4060.4732    
  40512000  -4010.3853    
  40513000  -4078.1444    
  40514000  -4207.8104    
  40515000  -4169.8914    
  40516000  -4051.8043    
  40517000  -3982.5793    
  40518000  -4047.5181    
  40519000  -4164.2642    
  40520000  -4031.9097    
  40521000  -4096.6509    
  40522000  -4002.2894    
  40523000  -4076.6759    
  40524000  -4111.945     
  40525000  -4117.6072    
  40526000  -4131.1172    
  40527000  -4044.1005    
  40528000  -4183.6073    
  40529000  -4127.057     
  40530000  -4111.6024    
  40531000  -4224.7877    
  40532000  -4123.082     
  40533000  -4076.8453    
  40534000  -4092.1553    
  40535000  -4068.6031    
  40536000  -4074.0533    
  40537000  -4085.9995    
  40538000  -3990.8346    
  40539000  -4118.4098    
  40540000  -4058.8845    
  40541000  -4096.8981    
  40542000  -4061.9805    
  40543000  -4264.2008    
  40544000  -4024.8145    
  40545000  -4084.1555    
  40546000  -4117.37      
  40547000  -4054.4167    
  40548000  -4041.1341    
  40549000  -4161.0018    
  40550000  -4068.4554    
  40551000  -4107.4298    
  40552000  -4183.2519    
  40553000  -4051.8072    
  40554000  -4113.3021    
  40555000  -4070.4141    
  40556000  -4144.1128    
  40557000  -4047.0909    
  40558000  -4054.5052    
  40559000  -4150.6932    
  40560000  -4035.6133    
  40561000  -4049.498     
  40562000  -4039.3832    
  40563000  -4014.071     
  40564000  -3974.3225    
  40565000  -4032.1626    
  40566000  -4082.2898    
  40567000  -4074.6387    
  40568000  -3946.9679    
  40569000  -3948.4219    
  40570000  -3971.3517    
  40571000  -3997.5026    
  40572000  -3925.0583    
  40573000  -3991.9808    
  40574000  -3982.5273    
  40575000  -3909.862     
  40576000  -4004.6087    
  40577000  -3925.3591    
  40578000  -3983.8806    
  40579000  -3923.9477    
  40580000  -3990.6681    
  40581000  -3970.6488    
  40582000  -3943.0323    
  40583000  -3948.534     
  40584000  -3972.8931    
  40585000  -3957.9627    
  40586000  -4047.9599    
  40587000  -3965.4546    
  40588000  -3988.18      
  40589000  -3963.4578    
  40590000  -3911.4449    
  40591000  -3988.2152    
  40592000  -3987.556     
  40593000  -3974.5981    
  40594000  -4026.0595    
  40595000  -3986.9283    
  40596000  -4060.0735    
  40597000  -3901.5752    
  40598000  -3969.042     
  40599000  -3945.4795    
  40600000  -4039.8549    
  40601000  -3989.7454    
  40602000  -4096.1351    
  40603000  -3987.532     
  40604000  -3925.0142    
  40605000  -4008.9853    
  40606000  -4032.1693    
  40607000  -4071.4484    
  40608000  -3948.634     
  40609000  -3999.3151    
  40610000  -3902.8999    
  40611000  -4037.1545    
  40612000  -3884.3468    
  40613000  -4047.0196    
  40614000  -3965.0984    
  40615000  -3977.9143    
  40616000  -4068.5556    
  40617000  -4070.8544    
  40618000  -4082.3818    
  40619000  -4008.5719    
  40620000  -3989.2294    
  40621000  -3963.6042    
  40622000  -3989.0713    
  40623000  -4107.4504    
  40624000  -4079.9195    
  40625000  -4096.6112    
  40626000  -4069.0292    
  40627000  -4033.8034    
  40628000  -3940.6209    
  40629000  -4046.2375    
  40630000  -4056.1599    
  40631000  -3939.9625    
  40632000  -3938.5305    
  40633000  -3964.0427    
  40634000  -3941.6589    
  40635000  -3866.9082    
  40636000  -3896.1516    
  40637000  -3970.2895    
  40638000  -4029.2796    
  40639000  -3950.3403    
  40640000  -4032.1056    
  40641000  -3899.4849    
  40642000  -3823.0665    
  40643000  -3974.7556    
  40644000  -3922.9901    
  40645000  -3968.8057    
  40646000  -3904.3225    
  40647000  -3967.4219    
  40648000  -4021.5245    
  40649000  -3875.5654    
  40650000  -4036.8435    
  40651000  -3887.3147    
  40652000  -3882.9043    
  40653000  -3992.8481    
  40654000  -4011.4175    
  40655000  -4041.2071    
  40656000  -4026.5937    
  40657000  -4070.1581    
  40658000  -4031.4252    
  40659000  -3997.1237    
  40660000  -3965.5607    
  40661000  -3903.0327    
  40662000  -3971.7486    
  40663000  -3936.5789    
  40664000  -3950.7702    
  40665000  -3928.595     
  40666000  -3953.1409    
  40667000  -3876.9961    
  40668000  -3899.3813    
  40669000  -3944.7949    
  40670000  -3890.513     
  40671000  -4025.1663    
  40672000  -3995.2835    
  40673000  -3934.6058    
  40674000  -3994.3381    
  40675000  -4044.5136    
  40676000  -3890.9142    
  40677000  -4013.4486    
  40678000  -3860.9088    
  40679000  -3914.1721    
  40680000  -3845.4936    
  40681000  -3930.0844    
  40682000  -3901.928     
  40683000  -3952.2812    
  40684000  -3933.3004    
  40685000  -4036.5435    
  40686000  -3925.7007    
  40687000  -3947.9736    
  40688000  -3867.8763    
  40689000  -3878.2647    
  40690000  -3932.8333    
  40691000  -3932.7356    
  40692000  -4093.939     
  40693000  -4056.1152    
  40694000  -3991.9734    
  40695000  -3992.0021    
  40696000  -4004.1568    
  40697000  -4012.9351    
  40698000  -4037.4825    
  40699000  -4031.228     
  40700000  -4001.0251    
  40701000  -3975.4657    
  40702000  -3969.837     
  40703000  -4022.7159    
  40704000  -3983.61      
  40705000  -4041.6507    
  40706000  -4056.7827    
  40707000  -4092.4911    
  40708000  -4157.629     
  40709000  -4091.5859    
  40710000  -3987.3638    
  40711000  -4040.557     
  40712000  -3872.8263    
  40713000  -3959.96      
  40714000  -3960.7009    
  40715000  -3994.7099    
  40716000  -4011.8292    
  40717000  -3842.5123    
  40718000  -3941.2517    
  40719000  -3865.583     
  40720000  -4029.3858    
  40721000  -4044.71      
  40722000  -3954.1098    
  40723000  -3893.518     
  40724000  -4021.6914    
  40725000  -3967.3797    
  40726000  -4041.5751    
  40727000  -4067.5903    
  40728000  -4015.0905    
  40729000  -3993.2244    
  40730000  -4017.6391    
  40731000  -4022.529     
  40732000  -4023.462     
  40733000  -3962.9326    
  40734000  -3986.9066    
  40735000  -3933.7844    
  40736000  -3842.8752    
  40737000  -4001.4555    
  40738000  -3918.7922    
  40739000  -3902.8979    
  40740000  -3893.9922    
  40741000  -3860.3091    
  40742000  -3894.3059    
  40743000  -3871.6339    
  40744000  -3887.701     
  40745000  -3789.3177    
  40746000  -3816.8034    
  40747000  -3825.1101    
  40748000  -3768.4292    
  40749000  -3820.3429    
  40750000  -3733.3135    
  40751000  -3827.1988    
  40752000  -3907.9261    
  40753000  -3908.335     
  40754000  -3864.2477    
  40755000  -3897.8285    
  40756000  -3835.27      
  40757000  -3955.3543    
  40758000  -3903.4145    
  40759000  -3925.3694    
  40760000  -3869.1666    
  40761000  -3902.3291    
  40762000  -3823.8106    
  40763000  -3884.5441    
  40764000  -3800.5148    
  40765000  -3918.7311    
  40766000  -3892.5094    
  40767000  -3909.1733    
  40768000  -3939.8774    
  40769000  -3887.3347    
  40770000  -3921.8205    
  40771000  -3998.1743    
  40772000  -4019.5422    
  40773000  -3994.3343    
  40774000  -3929.8324    
  40775000  -3981.4311    
  40776000  -3907.7101    
  40777000  -3915.9616    
  40778000  -3927.5247    
  40779000  -3954.589     
  40780000  -3886.8966    
  40781000  -3878.105     
  40782000  -3879.6442    
  40783000  -4067.7001    
  40784000  -3874.1449    
  40785000  -3860.7977    
  40786000  -3877.2771    
  40787000  -3979.7551    
  40788000  -3989.51      
  40789000  -3834.4092    
  40790000  -3927.7451    
  40791000  -3925.6131    
  40792000  -3868.456     
  40793000  -3805.4523    
  40794000  -3841.2897    
  40795000  -3862.3334    
  40796000  -3940.2322    
  40797000  -3926.6366    
  40798000  -4042.2903    
  40799000  -4036.6766    
  40800000  -3941.6511    
  40801000  -4041.1922    
  40802000  -3964.9983    
  40803000  -4037.1338    
  40804000  -4044.5624    
  40805000  -3974.7755    
  40806000  -4033.6254    
  40807000  -4016.462     
  40808000  -4014.3785    
  40809000  -3995.1681    
  40810000  -3927.8405    
  40811000  -3911.1635    
  40812000  -4021.2736    
  40813000  -3952.7707    
  40814000  -3955.9087    
  40815000  -3988.8918    
  40816000  -3893.5497    
  40817000  -3905.1619    
  40818000  -4053.9649    
  40819000  -3971.4184    
  40820000  -3960.1926    
  40821000  -3976.3681    
  40822000  -3941.0871    
  40823000  -3982.2367    
  40824000  -3994.6082    
  40825000  -3966.4053    
  40826000  -3919.0928    
  40827000  -3918.9228    
  40828000  -3920.0897    
  40829000  -3955.9337    
  40830000  -3877.8976    
  40831000  -3855.5991    
  40832000  -4055.0221    
  40833000  -3995.9432    
  40834000  -3979.8206    
  40835000  -3856.7958    
  40836000  -4019.2996    
  40837000  -3953.6237    
  40838000  -3947.9929    
  40839000  -3919.4205    
  40840000  -3892.9569    
  40841000  -3852.5385    
  40842000  -3899.2961    
  40843000  -3931.6995    
  40844000  -3834.6655    
  40845000  -3983.5454    
  40846000  -3845.39      
  40847000  -3889.8284    
  40848000  -3851.0081    
  40849000  -3829.0031    
  40850000  -3983.6495    
  40851000  -4052.1977    
  40852000  -3860.6279    
  40853000  -3882.7557    
  40854000  -3935.4836    
  40855000  -4037.3918    
  40856000  -3902.4487    
  40857000  -3846.8869    
  40858000  -3925.5924    
  40859000  -3896.1318    
  40860000  -3986.4117    
  40861000  -3881.8728    
  40862000  -3940.0129    
  40863000  -3901.6302    
  40864000  -3954.6027    
  40865000  -3917.7194    
  40866000  -3901.122     
  40867000  -3933.5807    
  40868000  -3863.9207    
  40869000  -3971.4633    
  40870000  -3943.067     
  40871000  -3956.9914    
  40872000  -3850.4693    
  40873000  -3879.7382    
  40874000  -3952.8377    
  40875000  -3978.5228    
  40876000  -3908.8465    
  40877000  -3913.4841    
  40878000  -3976.5252    
  40879000  -4047.7831    
  40880000  -4012.4781    
  40881000  -3993.1035    
  40882000  -4007.1717    
  40883000  -3960.6602    
  40884000  -3994.3604    
  40885000  -3917.9741    
  40886000  -3867.5851    
  40887000  -3931.4062    
  40888000  -3852.8398    
  40889000  -3933.3068    
  40890000  -3871.0154    
  40891000  -3899.6461    
  40892000  -3919.0759    
  40893000  -3937.5912    
  40894000  -3897.119     
  40895000  -3916.7083    
  40896000  -3901.3985    
  40897000  -3910.4517    
  40898000  -4027.8049    
  40899000  -3929.7245    
  40900000  -3981.6958    
  40901000  -3949.7984    
  40902000  -3922.9472    
  40903000  -4024.2726    
  40904000  -3880.6832    
  40905000  -3964.3499    
  40906000  -3863.9625    
  40907000  -3907.4761    
  40908000  -3910.7987    
  40909000  -3788.1216    
  40910000  -3906.1574    
  40911000  -3920.4777    
  40912000  -3899.7756    
  40913000  -3931.7722    
  40914000  -3998.5663    
  40915000  -3874.5926    
  40916000  -3868.6707    
  40917000  -3932.9931    
  40918000  -3931.5856    
  40919000  -3757.2557    
  40920000  -3876.5861    
  40921000  -3816.2417    
  40922000  -3864.5643    
  40923000  -3859.8834    
  40924000  -3894.6802    
  40925000  -3936.1399    
  40926000  -3966.8672    
  40927000  -3977.445     
  40928000  -3942.1654    
  40929000  -3930.9485    
  40930000  -3934.0301    
  40931000  -3797.7587    
  40932000  -3937.7302    
  40933000  -3898.2835    
  40934000  -4012.6215    
  40935000  -3890.0257    
  40936000  -3903.6281    
  40937000  -3843.9593    
  40938000  -3812.669     
  40939000  -3909.1257    
  40940000  -3902.8066    
  40941000  -3980.8199    
  40942000  -3936.5057    
  40943000  -3888.8238    
  40944000  -3824.5417    
  40945000  -3863.6285    
  40946000  -3901.8547    
  40947000  -3823.2804    
  40948000  -3879.988     
  40949000  -3855.2038    
  40950000  -3956.2708    
  40951000  -3879.6985    
  40952000  -3796.2698    
  40953000  -3866.8268    
  40954000  -3869.4346    
  40955000  -3805.1252    
  40956000  -3843.6289    
  40957000  -3838.7638    
  40958000  -3865.5917    
  40959000  -3877.3403    
  40960000  -3879.7208    
  40961000  -3936.2156    
  40962000  -4026.1757    
  40963000  -3997.3639    
  40964000  -3995.2791    
  40965000  -3873.6989    
  40966000  -3963.5357    
  40967000  -4005.2128    
  40968000  -3992.5195    
  40969000  -3884.9659    
  40970000  -3872.6791    
  40971000  -3858.903     
  40972000  -3816.8241    
  40973000  -3844.7615    
  40974000  -3885.6945    
  40975000  -3830.4036    
  40976000  -3904.4141    
  40977000  -3882.3342    
  40978000  -3920.3754    
  40979000  -3877.6955    
  40980000  -3899.5049    
  40981000  -3884.244     
  40982000  -3900.5441    
  40983000  -3958.2614    
  40984000  -3976.9068    
  40985000  -3988.9635    
  40986000  -3988.855     
  40987000  -4023.1135    
  40988000  -3963.1908    
  40989000  -3900.6925    
  40990000  -3947.5991    
  40991000  -4078.4557    
  40992000  -4067.0363    
  40993000  -4060.3816    
  40994000  -4072.0881    
  40995000  -4101.7089    
  40996000  -3933.2763    
  40997000  -4063.6484    
  40998000  -4014.7896    
  40999000  -4039.5591    
  41000000  -4036.8937    
  41001000  -3988.7252    
  41002000  -3904.6013    
  41003000  -3898.4465    
  41004000  -3944.4343    
  41005000  -3938.0314    
  41006000  -3917.426     
  41007000  -3743.4147    
  41008000  -3856.2056    
  41009000  -3846.0648    
  41010000  -3896.022     
  41011000  -3898.5048    
  41012000  -3841.7738    
  41013000  -3905.2485    
  41014000  -3855.1875    
  41015000  -3878.259     
  41016000  -3955.3586    
  41017000  -4008.9628    
  41018000  -4064.054     
  41019000  -4018.272     
  41020000  -4037.3798    
  41021000  -4045.969     
  41022000  -4006.5153    
  41023000  -4149.9732    
  41024000  -4080.9615    
  41025000  -4095.3222    
  41026000  -4057.958     
  41027000  -4011.7733    
  41028000  -4019.2673    
  41029000  -4118.6323    
  41030000  -4053.8554    
  41031000  -4099.6134    
  41032000  -4042.1176    
  41033000  -4031.9171    
  41034000  -4130.4493    
  41035000  -4109.5267    
  41036000  -4154.2852    
  41037000  -4217.3565    
  41038000  -4097.5699    
  41039000  -4002.3189    
  41040000  -4065.5377    
  41041000  -4015.1363    
  41042000  -4033.5459    
  41043000  -4142.5596    
  41044000  -4104.7858    
  41045000  -4001.8015    
  41046000  -3992.5062    
  41047000  -4059.8336    
  41048000  -4080.4567    
  41049000  -3975.0381    
  41050000  -3932.6153    
  41051000  -3986.1389    
  41052000  -3977.4966    
  41053000  -3932.638     
  41054000  -4085.5797    
  41055000  -3952.6726    
  41056000  -3895.7195    
  41057000  -3944.1558    
  41058000  -3994.2987    
  41059000  -3916.6981    
  41060000  -4025.5256    
  41061000  -3992.6628    
  41062000  -3967.8473    
  41063000  -4000.983     
  41064000  -3967.9153    
  41065000  -4024.5503    
  41066000  -4081.302     
  41067000  -4032.8116    
  41068000  -4043.2235    
  41069000  -4021.4116    
  41070000  -4015.8118    
  41071000  -3982.348     
  41072000  -4010.048     
  41073000  -3919.2786    
  41074000  -4005.9839    
  41075000  -3987.1577    
  41076000  -3888.8523    
  41077000  -3923.005     
  41078000  -3969.9392    
  41079000  -3868.1626    
  41080000  -3864.3483    
  41081000  -3909.0418    
  41082000  -3869.2005    
  41083000  -3982.3342    
  41084000  -3887.7122    
  41085000  -3876.7327    
  41086000  -3814.6203    
  41087000  -3919.2556    
  41088000  -3887.6639    
  41089000  -3853.6587    
  41090000  -3952.9762    
  41091000  -3932.1587    
  41092000  -3902.2737    
  41093000  -3947.3353    
  41094000  -3965.7967    
  41095000  -3898.2       
  41096000  -3958.908     
  41097000  -4006.1955    
  41098000  -3923.5368    
  41099000  -3827.2193    
  41100000  -3939.0017    
  41101000  -3846.5006    
  41102000  -3945.3999    
  41103000  -3869.0486    
  41104000  -3862.0137    
  41105000  -3849.1127    
  41106000  -3850.3878    
  41107000  -3864.1381    
  41108000  -3880.8022    
  41109000  -3832.3714    
  41110000  -3847.9132    
  41111000  -3905.7627    
  41112000  -3766.4466    
  41113000  -3907.8133    
  41114000  -3943.8676    
  41115000  -4012.9337    
  41116000  -3954.9742    
  41117000  -3870.4279    
  41118000  -4004.9207    
  41119000  -4005.4753    
  41120000  -3855.0766    
  41121000  -3854.2597    
  41122000  -3837.291     
  41123000  -3807.4769    
  41124000  -3925.9498    
  41125000  -3868.9934    
  41126000  -3899.4472    
  41127000  -3797.2783    
  41128000  -3958.6542    
  41129000  -3946.9476    
  41130000  -3900.0807    
  41131000  -3874.899     
  41132000  -3856.4947    
  41133000  -3858.9447    
  41134000  -3900.4629    
  41135000  -3791.8131    
  41136000  -3862.0073    
  41137000  -3860.5963    
  41138000  -3821.7018    
  41139000  -3934.6504    
  41140000  -3868.8707    
  41141000  -3942.2668    
  41142000  -3989.6234    
  41143000  -3968.7408    
  41144000  -3930.0426    
  41145000  -4024.0477    
  41146000  -3967.8979    
  41147000  -3904.8659    
  41148000  -3760.4356    
  41149000  -3924.9507    
  41150000  -4052.1451    
  41151000  -3903.9968    
  41152000  -3804.8164    
  41153000  -3871.3337    
  41154000  -3921.9707    
  41155000  -3879.2021    
  41156000  -3884.0913    
  41157000  -3971.7586    
  41158000  -3800.427     
  41159000  -3897.3497    
  41160000  -4023.0062    
  41161000  -4042.8778    
  41162000  -3963.2973    
  41163000  -3944.999     
  41164000  -3951.4703    
  41165000  -4033.2381    
  41166000  -3945.0966    
  41167000  -3905.2588    
  41168000  -3899.5957    
  41169000  -3796.6325    
  41170000  -3910.4832    
  41171000  -3899.4345    
  41172000  -3890.1561    
  41173000  -4009.4132    
  41174000  -3983.9329    
  41175000  -3932.5624    
  41176000  -3989.6928    
  41177000  -3884.085     
  41178000  -4021.2188    
  41179000  -3884.5171    
  41180000  -3879.6942    
  41181000  -3907.6881    
  41182000  -3923.1167    
  41183000  -3967.4119    
  41184000  -3896.8821    
  41185000  -3872.6923    
  41186000  -3874.8216    
  41187000  -3967.0672    
  41188000  -3987.8411    
  41189000  -3953.8074    
  41190000  -4016.6355    
  41191000  -4022.3059    
  41192000  -4051.8325    
  41193000  -4028.0433    
  41194000  -3956.3576    
  41195000  -3911.558     
  41196000  -3920.7239    
  41197000  -3897.3948    
  41198000  -3905.3932    
  41199000  -3831.4567    
  41200000  -3802.5367    
  41201000  -3944.2096    
  41202000  -3986.9976    
  41203000  -3929.7962    
  41204000  -4052.4819    
  41205000  -4011.395     
  41206000  -4015.0302    
  41207000  -3960.6135    
  41208000  -3981.9033    
  41209000  -3954.9978    
  41210000  -3969.6255    
  41211000  -3960.4864    
  41212000  -3957.1783    
  41213000  -3886.9337    
  41214000  -3952.7864    
  41215000  -3961.8107    
  41216000  -3860.1545    
  41217000  -3882.6257    
  41218000  -3895.3288    
  41219000  -3882.8411    
  41220000  -3819.3765    
  41221000  -3790.157     
  41222000  -3843.5811    
  41223000  -3875.6104    
  41224000  -3840.0291    
  41225000  -3770.8584    
  41226000  -3780.7501    
  41227000  -3740.8846    
  41228000  -3686.1202    
  41229000  -3767.1677    
  41230000  -3711.6427    
  41231000  -3764.9039    
  41232000  -3896.5854    
  41233000  -3851.3798    
  41234000  -3843.0356    
  41235000  -3877.3306    
  41236000  -3878.725     
  41237000  -3870.5632    
  41238000  -3892.3363    
  41239000  -3758.2295    
  41240000  -3854.6352    
  41241000  -3785.6099    
  41242000  -3874.8762    
  41243000  -3855.0256    
  41244000  -3836.6124    
  41245000  -3776.9194    
  41246000  -3840.3049    
  41247000  -3717.0601    
  41248000  -3742.4933    
  41249000  -3721.543     
  41250000  -3801.152     
  41251000  -3813.6771    
  41252000  -3879.0479    
  41253000  -3797.2652    
  41254000  -3849.4337    
  41255000  -3903.0419    
  41256000  -3842.6982    
  41257000  -3862.0272    
  41258000  -3824.999     
  41259000  -3842.7829    
  41260000  -3865.8882    
  41261000  -3737.711     
  41262000  -3807.21      
  41263000  -3776.2889    
  41264000  -3893.291     
  41265000  -3815.8103    
  41266000  -3899.5747    
  41267000  -3846.1459    
  41268000  -3909.5989    
  41269000  -3971.9191    
  41270000  -3987.2564    
  41271000  -4006.2332    
  41272000  -4010.1275    
  41273000  -4075.9858    
  41274000  -4065.0913    
  41275000  -4036.6397    
  41276000  -3999.8735    
  41277000  -4017.3427    
  41278000  -4093.6914    
  41279000  -4006.8364    
  41280000  -4013.5802    
  41281000  -3974.3572    
  41282000  -3854.6974    
  41283000  -3959.8163    
  41284000  -4005.978     
  41285000  -4055.1211    
  41286000  -3926.808     
  41287000  -3853.4881    
  41288000  -3918.5236    
  41289000  -4007.589     
  41290000  -4044.1567    
  41291000  -3998.4378    
  41292000  -3897.4253    
  41293000  -3963.5448    
  41294000  -3927.6722    
  41295000  -3966.8618    
  41296000  -3889.206     
  41297000  -3991.8786    
  41298000  -3896.1958    
  41299000  -3978.6469    
  41300000  -3935.6443    
  41301000  -4070.1458    
  41302000  -4016.3212    
  41303000  -4042.6881    
  41304000  -4050.0747    
  41305000  -4134.1229    
  41306000  -4102.2826    
  41307000  -4096.1471    
  41308000  -4076.8809    
  41309000  -4028.3015    
  41310000  -4064.9911    
  41311000  -4077.6204    
  41312000  -3992.7292    
  41313000  -4062.6074    
  41314000  -4000.3414    
  41315000  -4041.2641    
  41316000  -4134.3176    
  41317000  -4020.4896    
  41318000  -4050.0966    
  41319000  -4070.7618    
  41320000  -4019.4636    
  41321000  -3992.1038    
  41322000  -4068.6869    
  41323000  -4060.1486    
  41324000  -4116.262     
  41325000  -4065.4473    
  41326000  -4049.5739    
  41327000  -4040.7571    
  41328000  -4101.4061    
  41329000  -4063.3977    
  41330000  -4062.6101    
  41331000  -4160.7625    
  41332000  -4155.7403    
  41333000  -4110.761     
  41334000  -4167.62      
  41335000  -4105.1565    
  41336000  -4111.8796    
  41337000  -4012.002     
  41338000  -4069.4902    
  41339000  -4046.0364    
  41340000  -4156.0244    
  41341000  -4064.291     
  41342000  -3961.5914    
  41343000  -4022.4327    
  41344000  -4080.5406    
  41345000  -4000.7263    
  41346000  -4121.1981    
  41347000  -4051.7047    
  41348000  -4106.5361    
  41349000  -4046.5464    
  41350000  -4109.6997    
  41351000  -4150.0111    
  41352000  -3958.6027    
  41353000  -4033.1375    
  41354000  -4112.0234    
  41355000  -4072.6065    
  41356000  -4020.1022    
  41357000  -3991.6182    
  41358000  -3956.6702    
  41359000  -3997.1286    
  41360000  -3976.3078    
  41361000  -4042.4558    
  41362000  -4113.4688    
  41363000  -4087.4896    
  41364000  -4044.6254    
  41365000  -4043.891     
  41366000  -4077.892     
  41367000  -4049.7769    
  41368000  -4095.7313    
  41369000  -4082.5401    
  41370000  -4117.3528    
  41371000  -4145.3631    
  41372000  -4073.7439    
  41373000  -4078.3944    
  41374000  -4008.0388    
  41375000  -4038.6522    
  41376000  -4072.105     
  41377000  -4080.8023    
  41378000  -3946.0109    
  41379000  -3979.3107    
  41380000  -4071.3085    
  41381000  -3946.6409    
  41382000  -3955.9504    
  41383000  -3958.0845    
  41384000  -3989.8072    
  41385000  -4028.7439    
  41386000  -3949.6698    
  41387000  -4033.3796    
  41388000  -3938.8405    
  41389000  -3931.3902    
  41390000  -3926.5534    
  41391000  -3924.5471    
  41392000  -3878.4295    
  41393000  -3904.1357    
  41394000  -3875.3071    
  41395000  -3939.7142    
  41396000  -3968.6382    
  41397000  -3950.6169    
  41398000  -4005.0967    
  41399000  -3992.3628    
  41400000  -3994.9345    
  41401000  -3948.1959    
  41402000  -3925.9805    
  41403000  -3989.5281    
  41404000  -3958.9795    
  41405000  -4034.5472    
  41406000  -4030.214     
  41407000  -4051.8336    
  41408000  -4151.1604    
  41409000  -4052.8454    
  41410000  -4057.4672    
  41411000  -4052.3125    
  41412000  -4071.1095    
  41413000  -4067.6789    
  41414000  -4010.0546    
  41415000  -4017.8743    
  41416000  -3999.5836    
  41417000  -4154.6198    
  41418000  -4009.619     
  41419000  -4077.9585    
  41420000  -3951.5577    
  41421000  -3991.8249    
  41422000  -3974.4979    
  41423000  -3905.0548    
  41424000  -3908.7794    
  41425000  -3888.8395    
  41426000  -3915.1104    
  41427000  -3868.6886    
  41428000  -3967.5085    
  41429000  -4012.808     
  41430000  -3937.3232    
  41431000  -3910.5212    
  41432000  -3907.6249    
  41433000  -3990.386     
  41434000  -3986.5078    
  41435000  -4035.6679    
  41436000  -4040.7762    
  41437000  -3966.0938    
  41438000  -3987.2731    
  41439000  -3919.4467    
  41440000  -4027.9056    
  41441000  -4062.6761    
  41442000  -3962.7645    
  41443000  -4155.5341    
  41444000  -4055.594     
  41445000  -4051.1033    
  41446000  -3925.5543    
  41447000  -3860.6078    
  41448000  -3949.6795    
  41449000  -3927.2846    
  41450000  -4046.6036    
  41451000  -3904.0411    
  41452000  -3828.5008    
  41453000  -4012.4654    
  41454000  -3920.0564    
  41455000  -3930.4263    
  41456000  -4063.9684    
  41457000  -4015.7867    
  41458000  -4065.6711    
  41459000  -3974.0223    
  41460000  -3989.7958    
  41461000  -4068.0465    
  41462000  -4039.1988    
  41463000  -3854.4663    
  41464000  -3942.777     
  41465000  -3872.3509    
  41466000  -3917.2193    
  41467000  -3904.232     
  41468000  -4012.258     
  41469000  -3972.7688    
  41470000  -3924.4237    
  41471000  -3925.4584    
  41472000  -3924.5266    
  41473000  -3931.837     
  41474000  -3917.9709    
  41475000  -3973.8378    
  41476000  -3964.0697    
  41477000  -3977.2386    
  41478000  -3890.7298    
  41479000  -3989.4558    
  41480000  -3881.2935    
  41481000  -4096.2907    
  41482000  -4015.1867    
  41483000  -3981.7673    
  41484000  -4011.5728    
  41485000  -4067.6464    
  41486000  -3897.1812    
  41487000  -4075.5003    
  41488000  -3971.4415    
  41489000  -3971.9852    
  41490000  -4071.5283    
  41491000  -4025.5136    
  41492000  -4072.688     
  41493000  -4071.865     
  41494000  -4070.45      
  41495000  -3976.6021    
  41496000  -3973.6243    
  41497000  -4027.7638    
  41498000  -4033.2472    
  41499000  -3994.2512    
  41500000  -3952.0504    
  41501000  -3953.7038    
  41502000  -3945.2253    
  41503000  -3944.9418    
  41504000  -3933.6282    
  41505000  -3975.7557    
  41506000  -3983.1547    
  41507000  -3881.7487    
  41508000  -4004.0526    
  41509000  -3991.9474    
  41510000  -3922.9501    
  41511000  -3802.9368    
  41512000  -3845.7919    
  41513000  -4009.2439    
  41514000  -3900.2814    
  41515000  -3895.1557    
  41516000  -3909.4183    
  41517000  -3934.7673    
  41518000  -3929.5742    
  41519000  -3962.5246    
  41520000  -4001.5419    
  41521000  -3939.7265    
  41522000  -3934.1607    
  41523000  -4016.5832    
  41524000  -4068.2342    
  41525000  -3922.1822    
  41526000  -3990.6834    
  41527000  -3877.115     
  41528000  -4012.6473    
  41529000  -3930.2345    
  41530000  -3850.8233    
  41531000  -3905.2213    
  41532000  -3897.6425    
  41533000  -3891.9191    
  41534000  -3975.1255    
  41535000  -4015.0172    
  41536000  -3847.9942    
  41537000  -3845.194     
  41538000  -3857.317     
  41539000  -4050.9959    
  41540000  -3927.6749    
  41541000  -3922.3795    
  41542000  -3807.9534    
  41543000  -3895.2753    
  41544000  -3896.7161    
  41545000  -3837.7852    
  41546000  -3824.0519    
  41547000  -3896.4585    
  41548000  -3948.1622    
  41549000  -3897.4301    
  41550000  -3996.6808    
  41551000  -3944.8906    
  41552000  -3926.4466    
  41553000  -3881.5325    
  41554000  -3921.0243    
  41555000  -3923.1589    
  41556000  -3948.259     
  41557000  -3961.0519    
  41558000  -3929.2938    
  41559000  -3897.501     
  41560000  -3912.1087    
  41561000  -3859.1237    
  41562000  -3867.6671    
  41563000  -3813.3395    
  41564000  -3853.5335    
  41565000  -4029.9966    
  41566000  -4038.3317    
  41567000  -4045.5432    
  41568000  -3963.9679    
  41569000  -3968.5952    
  41570000  -3935.0195    
  41571000  -3889.5609    
  41572000  -3961.818     
  41573000  -4016.9629    
  41574000  -4063.0797    
  41575000  -4014.5363    
  41576000  -4010.6257    
  41577000  -4042.2166    
  41578000  -3883.2123    
  41579000  -3939.102     
  41580000  -3846.4952    
  41581000  -3994.638     
  41582000  -3921.0941    
  41583000  -3937.1693    
  41584000  -3974.0875    
  41585000  -3937.4376    
  41586000  -4016.9506    
  41587000  -4135.5672    
  41588000  -4072.9238    
  41589000  -4133.2273    
  41590000  -3970.244     
  41591000  -4171.5844    
  41592000  -4052.4442    
  41593000  -4131.2753    
  41594000  -4047.1034    
  41595000  -4051.9732    
  41596000  -4076.3689    
  41597000  -4189.1112    
  41598000  -4105.446     
  41599000  -4125.5747    
  41600000  -4079.7507    
  41601000  -4231.8317    
  41602000  -4094.8607    
  41603000  -4121.1012    
  41604000  -4126.9788    
  41605000  -4122.7892    
  41606000  -3998.6428    
  41607000  -4072.6009    
  41608000  -4092.891     
  41609000  -4027.351     
  41610000  -4070.9666    
  41611000  -4007.2938    
  41612000  -4027.0933    
  41613000  -4039.5803    
  41614000  -4050.856     
  41615000  -4034.9301    
  41616000  -4000.4881    
  41617000  -4000.4598    
  41618000  -4104.3086    
  41619000  -4028.1087    
  41620000  -4206.7286    
  41621000  -4105.7072    
  41622000  -3993.1592    
  41623000  -4112.2516    
  41624000  -4156.6549    
  41625000  -4015.7556    
  41626000  -4045.4341    
  41627000  -4115.8608    
  41628000  -4145.4701    
  41629000  -4061.0268    
  41630000  -4161.2605    
  41631000  -4069.5203    
  41632000  -4094.0605    
  41633000  -4043.9911    
  41634000  -4093.3652    
  41635000  -4070.4955    
  41636000  -4144.662     
  41637000  -4178.4973    
  41638000  -4047.3602    
  41639000  -4175.7087    
  41640000  -3984.5789    
  41641000  -4101.5858    
  41642000  -3959.2646    
  41643000  -4032.6912    
  41644000  -4094.7116    
  41645000  -4089.9688    
  41646000  -4032.5917    
  41647000  -3984.3058    
  41648000  -4070.7898    
  41649000  -4042.4398    
  41650000  -3969.9075    
  41651000  -3970.9969    
  41652000  -3975.4495    
  41653000  -3969.9545    
  41654000  -3966.6361    
  41655000  -3970.662     
  41656000  -3906.2328    
  41657000  -3970.2911    
  41658000  -3940.3579    
  41659000  -3962.1817    
  41660000  -3881.5428    
  41661000  -3951.3696    
  41662000  -4024.6614    
  41663000  -3936.2754    
  41664000  -3903.9455    
  41665000  -4019.3735    
  41666000  -3884.4111    
  41667000  -3820.9378    
  41668000  -3841.3153    
  41669000  -3784.3002    
  41670000  -3868.4696    
  41671000  -3785.9935    
  41672000  -3853.4199    
  41673000  -3906.5065    
  41674000  -3990.8433    
  41675000  -3930.9826    
  41676000  -3915.8909    
  41677000  -3929.9055    
  41678000  -3941.9156    
  41679000  -3860.9367    
  41680000  -3958.6884    
  41681000  -3818.7906    
  41682000  -3891.576     
  41683000  -3863.2896    
  41684000  -3898.0674    
  41685000  -3900.2092    
  41686000  -3951.2487    
  41687000  -3941.2154    
  41688000  -3902.4815    
  41689000  -3952.6456    
  41690000  -4035.8539    
  41691000  -3919.5569    
  41692000  -3953.1039    
  41693000  -3940.8286    
  41694000  -4011.0778    
  41695000  -4000.6077    
  41696000  -3982.6451    
  41697000  -3999.5974    
  41698000  -4002.2319    
  41699000  -3985.711     
  41700000  -3913.1461    
  41701000  -3970.4914    
  41702000  -4024.3476    
  41703000  -3908.4956    
  41704000  -3937.813     
  41705000  -3927.3905    
  41706000  -3974.7881    
  41707000  -4004.2879    
  41708000  -3937.6717    
  41709000  -3877.0262    
  41710000  -3964.2532    
  41711000  -3942.9889    
  41712000  -3972.0766    
  41713000  -3904.9547    
  41714000  -3991.7716    
  41715000  -4045.5394    
  41716000  -3888.7786    
  41717000  -4034.6423    
  41718000  -3909.3053    
  41719000  -4043.4556    
  41720000  -4104.9167    
  41721000  -4058.4033    
  41722000  -3972.4598    
  41723000  -3925.9469    
  41724000  -3922.3621    
  41725000  -3918.3369    
  41726000  -4046.5511    
  41727000  -4022.0333    
  41728000  -4046.3536    
  41729000  -3973.4229    
  41730000  -4090.2585    
  41731000  -4031.0256    
  41732000  -4047.9578    
  41733000  -4083.7582    
  41734000  -4068.9691    
  41735000  -4066.4748    
  41736000  -4045.08      
  41737000  -4075.0253    
  41738000  -4126.0471    
  41739000  -4005.9027    
  41740000  -3996.103     
  41741000  -4042.9535    
  41742000  -4049.455     
  41743000  -4095.5238    
  41744000  -4034.6583    
  41745000  -4009.892     
  41746000  -4003.0195    
  41747000  -4056.3773    
  41748000  -4067.8972    
  41749000  -3975.2235    
  41750000  -4050.2962    
  41751000  -4085.3675    
  41752000  -4052.3339    
  41753000  -4039.8966    
  41754000  -4074.2366    
  41755000  -4010.8349    
  41756000  -3928.7014    
  41757000  -4005.5898    
  41758000  -3962.6596    
  41759000  -3945.8278    
  41760000  -4023.786     
  41761000  -3898.6791    
  41762000  -3931.7003    
  41763000  -3962.9313    
  41764000  -3927.9584    
  41765000  -4000.9728    
  41766000  -3914.5918    
  41767000  -3919.5501    
  41768000  -3845.0022    
  41769000  -3894.8532    
  41770000  -3898.993     
  41771000  -4013.4271    
  41772000  -3950.7275    
  41773000  -4011.51      
  41774000  -3985.1142    
  41775000  -3892.703     
  41776000  -3861.5088    
  41777000  -3927.3782    
  41778000  -3906.5412    
  41779000  -3824.7238    
  41780000  -3863.0095    
  41781000  -3834.2258    
  41782000  -3831.6053    
  41783000  -3843.7434    
  41784000  -3767.1908    
  41785000  -3764.354     
  41786000  -3753.959     
  41787000  -3845.4776    
  41788000  -3746.3869    
  41789000  -3927.7829    
  41790000  -3819.1815    
  41791000  -3860.8549    
  41792000  -3896.141     
  41793000  -3790.4208    
  41794000  -3894.9509    
  41795000  -3903.0682    
  41796000  -3850.373     
  41797000  -3865.764     
  41798000  -3936.906     
  41799000  -3898.8999    
  41800000  -3896.2058    
  41801000  -3909.9507    
  41802000  -3880.8178    
  41803000  -3966.2677    
  41804000  -3885.1597    
  41805000  -3877.3688    
  41806000  -3866.6751    
  41807000  -3925.1976    
  41808000  -3986.5357    
  41809000  -3964.5642    
  41810000  -3937.4063    
  41811000  -3974.915     
  41812000  -3914.9398    
  41813000  -3955.0883    
  41814000  -3964.1984    
  41815000  -3952.5848    
  41816000  -3960.4443    
  41817000  -3924.6407    
  41818000  -3941.4756    
  41819000  -3973.4154    
  41820000  -3915.921     
  41821000  -3981.5251    
  41822000  -3918.1285    
  41823000  -3966.4829    
  41824000  -3845.0065    
  41825000  -3900.9096    
  41826000  -3903.2194    
  41827000  -3913.1514    
  41828000  -3882.1097    
  41829000  -3848.0718    
  41830000  -3868.2206    
  41831000  -3860.6785    
  41832000  -3879.7093    
  41833000  -3913.022     
  41834000  -3922.9908    
  41835000  -3887.7959    
  41836000  -3920.7089    
  41837000  -3899.0422    
  41838000  -3845.916     
  41839000  -3986.2705    
  41840000  -3920.9832    
  41841000  -4150.5259    
  41842000  -4016.9474    
  41843000  -4079.4398    
  41844000  -4040.4683    
  41845000  -4155.9715    
  41846000  -4021.821     
  41847000  -4101.4239    
  41848000  -4082.8533    
  41849000  -4065.9324    
  41850000  -4004.1121    
  41851000  -4034.3335    
  41852000  -4069.9301    
  41853000  -4018.7385    
  41854000  -3904.5187    
  41855000  -3999.7441    
  41856000  -3984.0744    
  41857000  -3922.1722    
  41858000  -3980.1897    
  41859000  -3870.9707    
  41860000  -3925.7859    
  41861000  -3998.0759    
  41862000  -3961.401     
  41863000  -4006.6791    
  41864000  -4094.1855    
  41865000  -4057.2798    
  41866000  -4030.54      
  41867000  -4006.7144    
  41868000  -4048.1842    
  41869000  -4096.4971    
  41870000  -4085.5459    
  41871000  -4127.9983    
  41872000  -4095.6641    
  41873000  -4056.0318    
  41874000  -4257.1703    
  41875000  -3970.681     
  41876000  -4159.88      
  41877000  -4026.2093    
  41878000  -4032.025     
  41879000  -4025.5937    
  41880000  -4026.2539    
  41881000  -4091.2097    
  41882000  -4109.1424    
  41883000  -4016.6671    
  41884000  -4056.4752    
  41885000  -3987.87      
  41886000  -4108.3197    
  41887000  -4055.8093    
  41888000  -4091.6877    
  41889000  -4001.0899    
  41890000  -4058.368     
  41891000  -4021.4037    
  41892000  -4030.6906    
  41893000  -3994.8859    
  41894000  -3999.254     
  41895000  -3982.1425    
  41896000  -4025.6805    
  41897000  -3989.623     
  41898000  -3991.4553    
  41899000  -4059.4546    
  41900000  -4024.6397    
  41901000  -4044.2809    
  41902000  -4014.7869    
  41903000  -4080.638     
  41904000  -4114.2525    
  41905000  -4074.8259    
  41906000  -4185.9353    
  41907000  -4071.6515    
  41908000  -4129.0713    
  41909000  -4159.7237    
  41910000  -4095.7982    
  41911000  -4115.6872    
  41912000  -4068.3008    
  41913000  -4051.732     
  41914000  -4065.0275    
  41915000  -4000.9311    
  41916000  -4062.2172    
  41917000  -4047.5781    
  41918000  -3968.4641    
  41919000  -4061.3142    
  41920000  -3999.1462    
  41921000  -4065.1863    
  41922000  -4073.8171    
  41923000  -4040.9982    
  41924000  -3987.2546    
  41925000  -3985.6423    
  41926000  -3927.6626    
  41927000  -4004.0598    
  41928000  -3903.8929    
  41929000  -4056.3393    
  41930000  -4055.3719    
  41931000  -4072.7651    
  41932000  -4014.3046    
  41933000  -4094.7594    
  41934000  -4077.22      
  41935000  -4117.8316    
  41936000  -4080.0769    
  41937000  -4010.2192    
  41938000  -4048.6684    
  41939000  -4048.4423    
  41940000  -4025.9105    
  41941000  -4245.5952    
  41942000  -4025.6855    
  41943000  -4083.3859    
  41944000  -3991.6193    
  41945000  -4221.8986    
  41946000  -4102.832     
  41947000  -4101.6766    
  41948000  -4152.2701    
  41949000  -4114.0877    
  41950000  -4113.6502    
  41951000  -4026.2305    
  41952000  -4020.4577    
  41953000  -4028.5619    
  41954000  -3962.4767    
  41955000  -4110.0704    
  41956000  -4046.1194    
  41957000  -4084.912     
  41958000  -4031.7917    
  41959000  -4067.063     
  41960000  -4097.2986    
  41961000  -4033.2524    
  41962000  -3943.7404    
  41963000  -3975.5881    
  41964000  -3992.8097    
  41965000  -4040.8173    
  41966000  -3944.9283    
  41967000  -4108.1297    
  41968000  -4090.8116    
  41969000  -3991.8165    
  41970000  -3999.9097    
  41971000  -4040.6587    
  41972000  -4165.7518    
  41973000  -4038.0335    
  41974000  -4076.007     
  41975000  -4173.367     
  41976000  -4156.7407    
  41977000  -4206.2635    
  41978000  -4059.2622    
  41979000  -4001.4022    
  41980000  -4069.2938    
  41981000  -4090.4944    
  41982000  -4170.6828    
  41983000  -4067.7696    
  41984000  -4141.5081    
  41985000  -4060.9066    
  41986000  -3975.5514    
  41987000  -4006.5308    
  41988000  -4035.3222    
  41989000  -4050.0028    
  41990000  -4006.1859    
  41991000  -4191.327     
  41992000  -4181.987     
  41993000  -4195.2897    
  41994000  -4081.6872    
  41995000  -4067.5356    
  41996000  -4055.6225    
  41997000  -4189.239     
  41998000  -4052.0409    
  41999000  -4139.6167    
  42000000  -4161.3646    
  42001000  -4121.5322    
  42002000  -4239.0788    
  42003000  -4110.8095    
  42004000  -4118.7277    
  42005000  -4154.7548    
  42006000  -4064.9998    
  42007000  -4185.207     
  42008000  -4165.1272    
  42009000  -4025.0495    
  42010000  -4131.825     
  42011000  -4010.8385    
  42012000  -4073.6966    
  42013000  -4025.8005    
  42014000  -4049.8431    
  42015000  -4124.0752    
  42016000  -4097.1544    
  42017000  -4141.9538    
  42018000  -4194.8235    
  42019000  -3998.0528    
  42020000  -4172.1187    
  42021000  -4113.3003    
  42022000  -4189.138     
  42023000  -4133.3385    
  42024000  -4046.2844    
  42025000  -3975.6981    
  42026000  -4024.081     
  42027000  -3955.7793    
  42028000  -4030.001     
  42029000  -3995.1113    
  42030000  -4002.3943    
  42031000  -4019.4234    
  42032000  -4091.5124    
  42033000  -4058.4978    
  42034000  -4096.4613    
  42035000  -4061.801     
  42036000  -4018.1803    
  42037000  -4052.9207    
  42038000  -4069.5463    
  42039000  -4003.4265    
  42040000  -4071.1251    
  42041000  -3940.026     
  42042000  -3928.3456    
  42043000  -3998.5795    
  42044000  -4085.4599    
  42045000  -3978.1224    
  42046000  -4073.96      
  42047000  -4043.9448    
  42048000  -4098.578     
  42049000  -4077.3256    
  42050000  -4027.4008    
  42051000  -4070.4207    
  42052000  -4026.2966    
  42053000  -4064.9861    
  42054000  -3938.9818    
  42055000  -3905.4555    
  42056000  -3967.2853    
  42057000  -3840.1759    
  42058000  -3917.944     
  42059000  -3944.5662    
  42060000  -3887.6951    
  42061000  -3938.7289    
  42062000  -3940.6575    
  42063000  -3919.1268    
  42064000  -3849.6659    
  42065000  -3814.8319    
  42066000  -3875.3456    
  42067000  -4018.7431    
  42068000  -3982.307     
  42069000  -3975.3589    
  42070000  -3979.2658    
  42071000  -4007.8437    
  42072000  -3921.5887    
  42073000  -3901.1467    
  42074000  -3852.0152    
  42075000  -3886.5296    
  42076000  -3895.3705    
  42077000  -3973.5471    
  42078000  -4045.6871    
  42079000  -3960.1173    
  42080000  -3925.1677    
  42081000  -3954.5535    
  42082000  -3990.809     
  42083000  -3967.7183    
  42084000  -3936.117     
  42085000  -3902.7142    
  42086000  -3840.9493    
  42087000  -3989.3468    
  42088000  -3988.405     
  42089000  -3959.4358    
  42090000  -3840.036     
  42091000  -3902.6002    
  42092000  -3809.3351    
  42093000  -3842.4365    
  42094000  -3850.9817    
  42095000  -3749.6002    
  42096000  -3797.6242    
  42097000  -3847.0742    
  42098000  -3826.5218    
  42099000  -3983.6886    
  42100000  -3859.8102    
  42101000  -3926.6182    
  42102000  -3892.3425    
  42103000  -3857.5179    
  42104000  -3786.6669    
  42105000  -3765.7217    
  42106000  -3786.598     
  42107000  -3775.1909    
  42108000  -3823.3382    
  42109000  -3768.9064    
  42110000  -3713.6188    
  42111000  -3760.468     
  42112000  -3974.8891    
  42113000  -3856.4991    
  42114000  -3838.7726    
  42115000  -3941.3705    
  42116000  -3883.8255    
  42117000  -3946.507     
  42118000  -3894.1774    
  42119000  -4013.2816    
  42120000  -3896.3636    
  42121000  -3986.7021    
  42122000  -4028.9857    
  42123000  -3981.2004    
  42124000  -4000.1551    
  42125000  -3984.632     
  42126000  -4068.1238    
  42127000  -4006.192     
  42128000  -4011.5467    
  42129000  -3991.7213    
  42130000  -3962.9817    
  42131000  -3977.4735    
  42132000  -3898.1763    
  42133000  -3987.2157    
  42134000  -4020.1918    
  42135000  -4103.745     
  42136000  -4059.1309    
  42137000  -4102.3137    
  42138000  -4097.0181    
  42139000  -4161.8321    
  42140000  -4129.6006    
  42141000  -4111.7654    
  42142000  -4230.1997    
  42143000  -4105.6947    
  42144000  -4096.1277    
  42145000  -4147.578     
  42146000  -4226.0996    
  42147000  -4171.6517    
  42148000  -4240.9589    
  42149000  -4239.2767    
  42150000  -4207.5834    
  42151000  -4216.0101    
  42152000  -4242.6223    
  42153000  -4099.8838    
  42154000  -4163.1057    
  42155000  -4124.7929    
  42156000  -4194.6615    
  42157000  -4052.0202    
  42158000  -4027.6101    
  42159000  -4152.961     
  42160000  -4129.9831    
  42161000  -4084.1863    
  42162000  -4068.7127    
  42163000  -4078.3357    
  42164000  -4047.0582    
  42165000  -4031.9342    
  42166000  -3995.9805    
  42167000  -4038.8839    
  42168000  -4013.3795    
  42169000  -4128.8539    
  42170000  -4099.19      
  42171000  -4114.1769    
  42172000  -4065.8762    
  42173000  -4106.4693    
  42174000  -3953.3257    
  42175000  -4074.9826    
  42176000  -4086.5434    
  42177000  -4023.2879    
